42
-6.6107943857062992e+01 frame 68   xyz file generated by TeraChem
     C     1.7358358882   -2.1916733157   -1.7645730817
     H     1.1805106063   -2.8317384614   -2.4436214362
     H     2.0135373658   -2.7647920838   -0.8819782591
     H     2.6381570540   -1.8339570078   -2.2511427484
     C     0.4314690206   -0.1720838019   -2.5690647590
     H    -0.1723486829    0.6659186814   -2.2333364385
     H     1.3095530761    0.2037246525   -3.0832174584
     H    -0.1560818587   -0.7939732196   -3.2360916246
     C     0.8672018270   -0.9948424541   -1.3616750926
     O    -0.3189691579   -1.4660563884   -0.7373165908
     O     1.6106434468   -0.1390655916   -0.5172821298
     O    -1.1532260240   -2.7351568282    0.8752670960
     O     2.5695043582    0.1500692914    1.4488368975
     C    -0.2028445741   -1.8624067760    0.5467161734
     C     1.7184629869   -0.4168030109    0.8084198686
     C     0.7543676807   -1.3622138655    1.3681246544
     C     0.8935907360   -1.6473546208    2.8309519915
     H     1.9283334351   -1.3982380405    3.0931020530
     C     0.6251328061   -3.0601757338    3.2824075817
     O     0.5040674553   -4.0334127834    2.5554637374
     C     0.3684512703   -2.9982161935    4.7197430186
     H     0.3905463451   -3.8630597863    5.3577339877
     C     0.0036747567   -1.7557008301    5.0407504073
     H    -0.2677859837   -1.3953486944    6.0178631929
     C    -0.0004938461   -0.8222341832    3.8585017253
     H    -1.0144124126   -0.7883884867    3.4429150749
     N     0.3592583909    0.4990743102    4.2407721941
     C     1.7475399238    0.7169341445    4.6081577451
     H     2.1331646404   -0.2403060330    4.9684014071
     H     2.3515966216    1.0284985890    3.7458578444
     C     1.8939792813    1.7352745809    5.7366989708
     H     1.2151700840    1.4943261660    6.5510587184
     H     1.6850325556    2.7450771242    5.3953162935
     H     2.9135575682    1.7129410554    6.1124815323
     C    -0.3556953409    1.6054139364    3.6417635874
     H    -1.4264660655    1.4055418689    3.7592066789
     H    -0.1253317434    2.4913049404    4.2353140932
     C    -0.0606691172    1.9044896671    2.1705834511
     H    -0.4108664956    1.0971594073    1.5320010908
     H    -0.5710297887    2.8189586399    1.8778282954
     H     1.0052736197    2.0354334594    2.0107993389
     H    -0.7952048223   -3.3700044242    1.5321771420
