79   
Iteration 15 Energy -272.37270378
O        2.9962257460    0.6594136731   13.5855704107
O        7.6761366665    9.0369220951    5.1772852920
O        6.9775073839    7.2650972686    6.2923162717
H        6.9754962260    6.8301220596    5.4455698650
O       13.5952001633   12.5531264726   10.9233873361
O        4.7311305736    8.6347759910    6.5360317201
O        4.6183206597    6.5554005183    7.3107319116
H        5.5607489958    6.4639977741    7.1554781908
N        3.7295217709    2.8525186958   13.2914206765
H        3.6994448478    3.1554579354   14.2555014615
N        4.7823103787    7.3434040677   11.7740490780
H        5.6513078278    7.3468803243   12.2945168445
N        7.2390025852   10.3040375840   11.9515814224
H        6.8278656977   10.8455014884   12.6946767220
N       11.4609719404   11.7150966333   11.3784954383
H       10.9906575370   11.9542785966   10.5145665380
C        2.3238496745   -0.5410013140   10.8775491337
H        1.9482650990   -0.7093681889   11.8832914568
H        2.1479681459   -1.3648327342   10.1918859203
C        2.9490150277    0.5556399098   10.4880828040
H        3.3057025791    0.6720789048    9.4610116656
C        3.2133082891    1.6888222835   11.3448700083
C        3.5350403111    2.9549451533   10.9760088752
C        3.7256425734    3.7892617507   12.1979715087
C        3.2494585657    1.5989193362   12.8487631604
C        3.8620868094    3.3895152622    9.6024603105
H        2.9576459725    3.4215923843    8.9719689911
H        4.3425783149    4.3810788877    9.5826109540
H        4.5595347545    2.6679892249    9.1428617364
C        4.1421474332    5.0538950713   12.3690869779
H        4.4729189904    5.3484452275   13.3745972953
C        4.0897271039    6.1457308883   11.4400820908
C        3.1679915907    6.4756611627   10.4412406325
C        3.4505154527    7.8209938335   10.0070099209
C        4.4836992851    8.3055318186   10.8011115340
C        1.9765561475    5.7147943760   10.0186454240
H        1.7732509428    4.8737227725   10.7008916073
H        1.0932949273    6.3757711383   10.0289435909
H        2.0893994537    5.3177888212    8.9953383697
C        2.6859846808    8.5793299218    8.9881803934
H        1.6394216950    8.6932498796    9.3360761850
H        3.1032530311    9.5987228016    8.8696445552
C        2.6517269520    7.8798446067    7.6135202121
H        2.1898652795    6.8769372770    7.6844696905
H        2.0654010331    8.4840824815    6.8966113151
C        4.0742548454    7.7705443185    7.0943570375
C        5.0518715701    9.6813592989   10.8913041283
H        4.7220478485   10.2673597855   10.0070424454
H        4.6363893782   10.1871866842   11.7863343098
C        6.5445928972    9.6698316298   10.9158269127
C        7.4758298539    9.1033451305   10.0506933527
C        8.7859464651    9.4122225879   10.5504237847
C        8.6202805382   10.1413883706   11.7338519893
C        7.1998259080    8.3357016385    8.8118574667
H        7.8861490062    7.4694738215    8.7464276141
H        6.1670265238    7.9394009323    8.8347597821
C        7.3955769331    9.2733895200    7.6061829528
H        6.5977046101   10.0436399682    7.5858272250
H        8.3707447164    9.7967866261    7.6808451882
C        7.3707323201    8.5794428167    6.2608618457
C       10.0609368433    8.9837079056    9.9498843090
H        9.9439772059    8.0291623418    9.4122922907
H       10.4201146435    9.7374257358    9.2298355378
H       10.8383354491    8.8490952777   10.7205797189
C        9.5952808364   10.6684461698   12.6340072515
H        9.3610262306   10.5422607538   13.6988305883
C       10.9089790423   10.8081288297   12.3190605994
C       12.0080942314   10.5479120328   13.3101541617
C       13.1503883142   11.1147068734   12.8823868190
C       12.8496572902   11.8743985857   11.6064685342
C       11.8107773701    9.7176959467   14.4903420773
H       12.1749916968    8.6932711907   14.3849952020
C       11.2461015947   10.1629135046   15.5948702483
H       10.8882961143   11.1813875898   15.7173893319
H       11.1126500043    9.5320331048   16.4683759085
C       14.5078475640   11.0844832991   13.4472884421
H       15.2278069190   10.7249333595   12.6943810900
H       14.8136614911   12.0997825808   13.7486521902
H       14.5587697956   10.4263465505   14.3279651105
