          42
 
 C     2.895055      -1.867603      -1.785440    
 H     2.878579      -2.627818      -2.560151    
 H     3.142950      -2.330963     -0.8350270    
 H     3.642784      -1.116083      -2.018077    
 C     1.087382     -0.5694047      -2.977662    
 H    0.1276595     -7.3563665E-02  -2.860342    
 H     1.824535      0.1688822      -3.282627    
 H     1.001698      -1.331822      -3.747894    
 C     1.538486      -1.214648      -1.678637    
 O    0.6254646      -2.246915      -1.302967    
 O     1.637062     -0.2435248     -0.6461806    
 O    -1.519530      -2.673461      -1.272108    
 O    0.4519181       1.215889      0.5484723    
 C   -0.5795344      -1.782551      -1.019611    
 C    0.4530255      0.2522565     -0.1732196    
 C   -0.7188516     -0.5140908     -0.5582591    
 C    -1.996176     -0.2379543      2.3141136E-02
 H    -2.102824      0.6749022      0.5909991    
 C    -2.953952      -1.163871     -4.9964447E-02
 O    -4.011391     -0.9972959      0.7926001    
 C    -2.852987      -2.491147     -0.7396694    
 H    -3.534148      -2.544266      -1.600761    
 C    -3.144584      -3.606691      0.2156771    
 H    -2.487466      -3.658040       1.067242    
 C    -4.170935      -4.446453      3.3167280E-02
 H    -4.783645      -4.327411     -0.8514928    
 N    -4.569420      -5.464036      0.8380985    
 C    -3.918931      -5.722076       2.100640    
 H    -3.636442      -4.770214       2.559518    
 H    -4.632828      -6.215364       2.764356    
 C    -2.682065      -6.605786       1.932205    
 H    -1.971438      -6.130517       1.262262    
 H    -2.960177      -7.568577       1.510258    
 H    -2.204218      -6.771786       2.894074    
 C    -5.766945      -6.203408      0.5212554    
 H    -5.866948      -6.265554     -0.5656791    
 H    -5.660478      -7.221693      0.9059868    
 C    -7.023564      -5.556497       1.109437    
 H    -7.130644      -4.542010      0.7338008    
 H    -7.905365      -6.129080      0.8345960    
 H    -6.960620      -5.514183       2.193982    
 H    -3.511165     -0.3707923       1.324978    
