42
Properties=species:S:1:pos:R:3 pbc="F F F"
C        2.89505500      -1.86760300      -1.78544000
H        2.87857900      -2.62781800      -2.56015100
H        3.14295000      -2.33096300      -0.83502700
H        3.64278400      -1.11608300      -2.01807700
C        1.08738200      -0.56940470      -2.97766200
H        0.12765950      -0.07356367      -2.86034200
H        1.82453500       0.16888220      -3.28262700
H        1.00169800      -1.33182200      -3.74789400
C        1.53848600      -1.21464800      -1.67863700
O        0.62546460      -2.24691500      -1.30296700
O        1.63706200      -0.24352480      -0.64618060
O       -1.51953000      -2.67346100      -1.27210800
O        0.45191810       1.21588900       0.54847230
C       -0.57953440      -1.78255100      -1.01961100
C        0.45302550       0.25225650      -0.17321960
C       -0.71885160      -0.51409080      -0.55825910
C       -1.99617600      -0.23795430       0.02314114
H       -2.10282400       0.67490220       0.59099910
C       -2.95395200      -1.16387100      -0.04996445
O       -4.01139100      -0.99729590       0.79260010
C       -2.85298700      -2.49114700      -0.73966940
H       -3.53414800      -2.54426600      -1.60076100
C       -3.14458400      -3.60669100       0.21567710
H       -3.42111153      -3.85032748       1.22749593
C       -3.14504895      -4.88856350      -0.16995109
H       -2.89443417      -5.11794547      -1.19795116
N       -3.43274749      -5.98437456       0.57744933
C       -3.86431671      -5.86552780       1.94980318
H       -4.49917220      -4.98053683       2.05059907
H       -4.46747787      -6.74110482       2.20092543
C       -2.67911981      -5.76786528       2.91153160
H       -2.06460222      -4.90791246       2.66144308
H       -2.06286855      -6.66116631       2.84371032
H       -3.03179419      -5.66462103       3.93429606
C       -3.47521677      -7.28591883      -0.04328049
H       -2.72848733      -7.32173785      -0.84102824
H       -3.20331709      -8.03764577       0.70320125
C       -4.85389265      -7.60900859      -0.62500944
H       -5.13072054      -6.86124546      -1.36390671
H       -4.84227954      -8.58642077      -1.09986989
H       -5.60864491      -7.61160883       0.15750735
H       -3.51116500      -0.37079230       1.32497800
