42
Converted from rst7
C   0.713000   3.615000   0.415000
H   0.009000   4.439000   0.558000
H   1.653000   3.890000   0.896000
H   0.313000   2.719000   0.897000
C   1.509000   4.602000   -1.791000
H   1.522000   4.420000   -2.868000
H   0.901000   5.484000   -1.580000
H   2.525000   4.789000   -1.445000
C   0.944000   3.403000   -1.070000
O   1.841000   2.314000   -1.313000
O   -0.302000   3.091000   -1.719000
O   2.304000   0.188000   -1.050000
O   -2.015000   1.788000   -1.931000
C   1.418000   1.033000   -1.118000
C   -0.754000   1.863000   -1.544000
C   -0.005000   0.806000   -1.095000
C   -0.679000   -0.502000   -0.696000
H   -1.451000   -0.246000   0.041000
C   -1.452000   -1.203000   -1.807000
O   -2.190000   -0.613000   -2.609000
C   -1.265000   -2.633000   -1.714000
H   -1.770000   -3.344000   -2.355000
C   -0.435000   -2.889000   -0.690000
H   -0.175000   -3.877000   -0.332000
C   0.149000   -1.662000   -0.037000
H   1.189000   -1.591000   -0.367000
N   0.152000   -1.761000   1.403000
C   1.114000   -0.877000   2.057000
H   1.081000   0.147000   1.640000
H   0.811000   -0.780000   3.102000
C   2.534000   -1.430000   2.007000
H   3.207000   -0.819000   2.616000
H   2.931000   -1.445000   0.988000
H   2.544000   -2.451000   2.399000
C   -1.174000   -1.773000   2.025000
H   -1.590000   -0.755000   2.125000
H   -1.848000   -2.325000   1.358000
C   -1.176000   -2.455000   3.387000
H   -0.783000   -3.473000   3.308000
H   -0.574000   -1.910000   4.119000
H   -2.193000   -2.497000   3.785000
H   -2.225000   0.814000   -2.181000
