42
Energy = 0.00 kcal/mol Geometry 1
c    1.000685 4.418208 -0.462045
h    0.113529 5.027308 -0.312831
h    1.872556 4.959662 -0.119890
h    0.899098 3.494963 0.105952
c    1.549519 5.322667 -2.769000
h    1.400758 5.103662 -3.820668
h    0.945756 6.176877 -2.485843
h    2.600003 5.520786 -2.591791
c    1.128875 4.108546 -1.954825
o    2.119175 3.104827 -2.180649
o    -0.133947 3.690085 -2.449857
o    2.736427 0.997706 -2.023204
o    -1.752371 2.216503 -2.145478
c    1.799232 1.803024 -1.984586
c    -0.555260 2.452388 -2.078009
c    0.439758 1.476030 -1.741258
c    -0.034456 0.259901 -1.198744
h    -1.058634 0.345996 -0.861065
c    0.532347 -0.990758 -1.079875
o    1.661321 -1.407974 -1.707017
c    -0.082684 -1.946629 -0.237425
h    0.131900 -2.989199 -0.417605
c    -0.698914 -1.532369 0.917134
h    -0.687078 -0.472939 1.110828
c    -1.172610 -2.357814 1.925722
h    -1.442594 -3.382262 1.707494
n    -1.257168 -1.960525 3.178590
c    -0.623481 -0.738861 3.634132
h    -0.947789 0.108214 3.029846
h    -0.935889 -0.557121 4.659129
c    0.896496 -0.888426 3.573076
h    1.375216 -0.100552 4.144602
h    1.259934 -0.844429 2.549766
h    1.195221 -1.845049 3.994692
c    -1.822957 -2.796789 4.202901
h    -2.121646 -3.739585 3.752726
h    -1.060741 -3.010830 4.957139
c    -3.025694 -2.113745 4.844549
h    -2.722413 -1.384675 5.587509
h    -3.616247 -1.602971 4.089971
h    -3.649697 -2.855774 5.332966
h    2.145491 -0.621062 -2.034582
