42

C	2.895054439	-1.867632762	-1.785479045
H	2.871124355	-2.641140775	-2.552028174
H	3.164039048	-2.31382259	-0.828926948
H	3.639439828	-1.119261812	-2.054430503
C	1.087375897	-0.569401055	-2.977670143
H	0.099650239	-0.119307887	-2.8749268
H	1.799912707	0.204847141	-3.260070409
H	1.049550077	-1.324214919	-3.762423601
C	1.538605902	-1.214325981	-1.678583775
O	0.625417412	-2.246922817	-1.302971684
O	1.63721792	-0.243565371	-0.646259422
O	-1.434406441	-2.771979495	-0.810350198
O	0.567456708	1.275555953	0.525216868
C	-0.579215115	-1.899911391	-0.810913145
C	0.494938381	0.244327009	-0.098682743
C	-0.712613413	-0.563457435	-0.275176579
C	-1.883824615	-0.014297469	0.233871872
H	-1.732327919	0.960689482	0.682112944
C	-3.211781946	-0.449054253	0.291260919
O	-3.682380108	-1.607999466	-0.228872364
C	-4.115302333	0.374656423	0.940469143
H	-3.736766179	1.317738273	1.318169095
C	-5.464875462	0.061595171	1.142828923
H	-5.837861671	-0.880322436	0.765131386
C	-6.278697029	0.934599097	1.826939804
H	-5.857001263	1.876981988	2.165670295
N	-7.558387161	0.766678803	2.136671705
C	-8.280434424	-0.448690269	1.779374396
H	-7.614106557	-1.30210795	1.915685905
H	-9.09338735	-0.568359364	2.496526392
C	-8.828638501	-0.407775935	0.360231457
H	-8.027005789	-0.280437806	-0.368139997
H	-9.535406372	0.415310082	0.239822512
H	-9.35011208	-1.339170602	0.135379035
C	-8.282835323	1.791306395	2.88152965
H	-7.79272779	2.74878829	2.70248911
H	-9.287704055	1.862357942	2.459287178
C	-8.347444201	1.498978149	4.373252454
H	-7.344099577	1.469453068	4.801072619
H	-8.917099887	2.27739317	4.883121325
H	-8.83391007	0.542047937	4.570125788
H	-2.911125683	-2.170965989	-0.475032135
