1212
Converted from rst7
C   -0.558678   4.677326   -0.677419
H   -1.112267   5.166550   -1.481577
H   -0.199288   5.439732   0.015228
H   -1.231722   4.005701   -0.143244
C   1.505066   4.868472   -2.090642
H   0.942901   5.137349   -2.984631
H   1.731179   5.777276   -1.535645
H   2.440253   4.387596   -2.380313
C   0.652562   3.961002   -1.244325
O   1.470784   3.429269   -0.204823
O   0.236209   2.866237   -2.117974
O   1.449935   2.184978   1.641797
O   -0.891705   0.913801   -2.092894
C   0.946038   2.400717   0.564801
C   -0.226169   1.846582   -1.425690
C   -0.064554   1.641552   -0.100811
C   -0.745130   0.366976   0.286845
H   -1.546652   0.513424   1.015284
C   -1.329450   -0.105009   -1.067911
O   -2.703091   -0.094239   -1.089184
C   -0.671731   -1.425765   -1.339421
H   -0.891416   -2.007475   -2.229975
C   0.111069   -1.793008   -0.325175
H   0.627489   -2.746573   -0.266313
C   0.218934   -0.749060   0.778236
H   1.242611   -0.355922   0.778668
N   -0.067795   -1.153324   2.137166
C   1.090060   -1.317398   3.002954
H   1.724922   -0.436014   2.860361
H   0.744188   -1.275576   4.040304
C   1.907671   -2.590442   2.785491
H   2.738447   -2.646733   3.496184
H   2.324079   -2.621707   1.772362
H   1.287817   -3.480956   2.933164
C   -1.155323   -2.112816   2.286971
H   -1.976535   -1.776191   1.640420
H   -0.884661   -3.121898   1.928632
C   -1.655386   -2.199058   3.723305
H   -0.930651   -2.691223   4.378261
H   -1.861001   -1.201218   4.120995
H   -2.573266   -2.788891   3.771047
H   -3.026231   -0.324554   -1.999548
O   -4.194984   1.453884   1.451143
H   -3.468818   1.810798   2.097330
H   -4.937847   1.035774   2.003541
O   7.438000   -10.673000   3.954000
H   7.802000   -11.399000   4.537000
H   8.255000   -10.299000   3.467000
O   -1.236000   6.703000   -11.392000
H   -0.919000   7.130000   -12.294000
H   -2.223000   6.273000   -11.517000
O   -10.467000   0.051000   0.978000
H   -10.188000   -0.762000   0.415000
H   -10.439000   -0.287000   1.938000
O   2.012000   -7.146000   11.061000
H   2.030000   -6.438000   11.830000
H   2.072000   -6.594000   10.151000
O   2.145440   1.418681   -5.463532
H   2.785881   1.651873   -4.681394
H   2.029806   0.394049   -5.510915
O   9.235000   -4.068000   9.901000
H   8.421000   -3.926000   9.325000
H   10.003000   -3.400000   9.606000
O   3.736000   -5.822000   -9.036000
H   3.631000   -6.415000   -8.249000
H   4.290000   -4.965000   -8.840000
O   -5.513000   13.468000   -2.311000
H   -5.816000   12.708000   -1.670000
H   -6.282000   14.049000   -2.525000
O   8.666000   -3.456000   6.574000
H   9.221000   -2.621000   6.510000
H   8.630000   -3.787000   5.618000
O   5.958000   6.116000   -10.453000
H   6.739000   6.040000   -11.131000
H   5.133000   5.529000   -10.618000
O   -1.238000   -9.924000   -8.381000
H   -0.887000   -9.096000   -8.889000
H   -1.764000   -9.629000   -7.539000
O   5.165000   9.617000   -7.295000
H   5.803000   9.688000   -6.518000
H   4.508000   8.782000   -7.059000
O   11.793000   4.196000   -4.089000
H   11.036000   4.837000   -3.818000
H   11.820000   3.453000   -3.387000
O   -4.394750   2.680004   -0.982830
H   -4.301868   2.084284   -0.140701
H   -4.293503   3.657790   -0.661376
O   -5.819000   7.218000   0.188000
H   -6.507000   6.727000   -0.402000
H   -6.329000   7.751000   0.849000
O   6.846000   6.241000   -3.260000
H   6.719000   5.592000   -2.467000
H   6.345000   7.026000   -2.862000
O   -5.669000   11.704000   -0.308000
H   -6.447000   11.091000   -0.427000
H   -5.757000   12.093000   0.616000
O   0.970000   -2.345000   -11.175000
H   0.333000   -2.980000   -10.685000
H   1.513000   -1.777000   -10.546000
O   -13.168000   0.261000   1.127000
H   -13.241000   1.039000   0.458000
H   -12.227000   -0.093000   1.017000
O   -1.194000   14.501000   0.862000
H   -2.160000   14.232000   0.518000
H   -0.972000   15.346000   0.411000
O   -9.088000   -5.830000   4.317000
H   -8.804000   -5.000000   3.788000
H   -8.280000   -6.487000   4.266000
O   -7.388000   8.905000   -2.459000
H   -7.858000   8.109000   -2.949000
H   -6.444000   8.705000   -2.152000
O   3.434000   10.889000   5.201000
H   3.088000   11.503000   4.449000
H   2.742000   10.402000   5.750000
O   7.216000   10.068000   -3.256000
H   6.392000   9.661000   -2.858000
H   8.037000   9.997000   -2.654000
O   0.129036   2.526931   4.161509
H   0.792833   2.080418   3.518828
H   0.459204   2.417401   5.131946
O   -7.262000   -3.879000   9.616000
H   -6.919000   -4.819000   9.912000
H   -7.536000   -3.968000   8.639000
O   1.000000   -10.119000   -4.603000
H   0.824000   -11.057000   -4.148000
H   0.884000   -9.412000   -3.852000
O   -2.030000   5.937000   4.689000
H   -2.539000   5.932000   3.821000
H   -2.451000   6.633000   5.277000
O   -11.073000   -8.165000   -0.725000
H   -11.265000   -9.145000   -0.476000
H   -10.291000   -7.964000   -0.085000
O   -7.193000   9.101000   2.245000
H   -6.940000   9.669000   3.048000
H   -7.388000   9.619000   1.375000
O   4.222000   -11.740000   -0.384000
H   3.439000   -11.292000   0.152000
H   5.122000   -11.869000   0.114000
O   5.556000   -10.740000   -2.549000
H   5.322000   -10.975000   -1.619000
H   5.146000   -11.451000   -3.164000
O   -7.563000   2.509000   -8.214000
H   -7.414000   1.997000   -7.314000
H   -7.422000   3.567000   -8.080000
O   -0.208000   11.737000   0.908000
H   -0.805000   11.569000   0.100000
H   -0.568000   12.632000   1.252000
O   7.213000   -8.085000   -5.315000
H   7.804000   -8.571000   -6.025000
H   7.228000   -7.086000   -5.458000
O   -6.138108   0.582996   -3.764239
H   -5.706618   1.519814   -3.678194
H   -6.698222   0.579005   -4.634136
O   -9.412000   -3.022000   10.954000
H   -9.936000   -2.221000   10.561000
H   -8.755000   -3.442000   10.252000
O   -6.277000   -1.503000   -10.569000
H   -5.930000   -1.383000   -11.586000
H   -6.672000   -2.443000   -10.466000
O   2.782348   -7.835747   0.699579
H   3.066911   -7.780413   -0.295021
H   2.225122   -6.986821   0.865342
O   4.219000   -2.302000   13.426000
H   3.177000   -2.316000   13.329000
H   4.580000   -1.990000   12.530000
O   -5.562000   -5.583000   12.861000
H   -5.815000   -5.914000   11.892000
H   -5.267000   -4.596000   12.729000
O   8.309000   8.161000   -0.479000
H   8.785000   7.421000   0.069000
H   9.039000   8.444000   -1.206000
O   -6.243000   -8.425000   -4.316000
H   -7.147000   -8.199000   -3.889000
H   -6.332000   -9.396000   -4.642000
O   -5.277000   6.794000   -7.930000
H   -4.521000   7.467000   -8.012000
H   -5.656000   7.063000   -7.006000
O   -5.137000   5.056000   6.953000
H   -4.576000   4.435000   6.340000
H   -6.110000   5.045000   6.796000
O   10.510000   -3.674000   0.559000
H   11.264000   -4.385000   0.269000
H   9.508000   -3.902000   0.570000
O   -2.772000   -4.382000   10.258000
H   -3.612000   -4.464000   10.803000
H   -1.993000   -4.334000   10.960000
O   -0.003000   -11.737000   5.894000
H   -0.598000   -12.026000   5.167000
H   -0.486000   -11.098000   6.578000
O   -7.091000   8.067000   7.866000
H   -6.574000   7.360000   8.396000
H   -7.253000   7.670000   6.967000
O   5.046000   -0.263000   -11.548000
H   5.037000   0.090000   -10.603000
H   4.135000   -0.167000   -11.875000
O   7.039000   -5.118000   -4.332000
H   7.801000   -5.049000   -4.993000
H   7.239000   -4.393000   -3.661000
O   -8.907000   3.394000   2.184000
H   -9.420000   3.306000   1.292000
H   -9.649000   2.963000   2.785000
O   3.773816   6.866653   -0.544971
H   3.957501   5.963401   -0.086669
H   4.536210   7.537109   -0.314225
O   13.157000   -4.360000   3.860000
H   12.233000   -3.934000   3.527000
H   13.344000   -4.098000   4.772000
O   8.158000   1.070000   5.183000
H   8.395000   1.995000   5.583000
H   8.994000   0.648000   4.755000
O   4.015542   4.332135   0.643771
H   3.082898   3.995617   0.369438
H   3.973781   4.498057   1.662615
O   -0.907000   5.501000   -8.887000
H   -1.152000   6.094000   -9.712000
H   -1.771000   5.167000   -8.428000
O   0.730000   -11.628000   -7.014000
H   0.275000   -11.019000   -7.698000
H   0.969000   -10.991000   -6.280000
O   -1.322000   5.702000   9.215000
H   -1.463000   6.619000   8.797000
H   -2.114000   5.094000   8.874000
O   -10.347000   -0.928000   -2.557000
H   -11.053000   -0.175000   -2.347000
H   -10.232000   -1.533000   -1.702000
O   -3.116000   -0.669000   8.666000
H   -3.866000   -0.648000   7.943000
H   -2.376000   0.030000   8.419000
O   -1.288188   0.788491   7.270426
H   -0.856353   -0.143242   7.090061
H   -0.525702   1.480530   7.204936
O   2.758000   12.449000   0.620000
H   1.804000   12.082000   0.531000
H   2.719000   13.442000   0.549000
O   1.590999   -5.294143   0.758645
H   2.073824   -5.321919   1.681203
H   2.077124   -4.619008   0.151065
O   1.719000   0.353000   -9.928000
H   1.633000   1.223000   -10.473000
H   2.558000   0.339000   -9.309000
O   -6.852000   4.839000   1.543000
H   -7.764000   4.427000   1.768000
H   -6.834000   5.050000   0.536000
O   5.456000   9.061000   4.971000
H   4.650000   9.731000   4.950000
H   5.964000   8.928000   4.107000
O   -2.161430   -7.735341   0.453881
H   -1.866023   -7.518801   -0.503871
H   -1.637909   -7.122219   1.098696
O   -2.091934   -5.036926   5.874737
H   -3.022990   -5.314436   5.529410
H   -2.212724   -4.333579   6.630740
O   -2.096000   -10.576000   -0.038000
H   -2.326000   -9.760000   0.508000
H   -1.057000   -10.543000   -0.030000
O   4.449000   13.429000   -2.654000
H   4.718000   12.553000   -2.209000
H   4.124000   13.301000   -3.627000
O   8.226000   -4.704000   3.942000
H   8.853000   -5.394000   3.509000
H   7.332000   -4.914000   3.490000
O   2.569750   -1.684006   6.255478
H   2.491448   -0.684929   6.521231
H   3.487287   -1.793066   5.795677
O   -3.928000   -9.164000   2.240000
H   -3.021000   -9.588000   2.587000
H   -3.748000   -8.465000   1.485000
O   1.487000   -6.178000   -10.432000
H   2.297000   -6.022000   -9.727000
H   0.881000   -5.331000   -10.389000
O   4.893000   8.244000   -3.154000
H   4.462000   7.989000   -2.237000
H   4.245000   8.765000   -3.692000
O   -1.452000   2.902000   11.246000
H   -0.627000   3.481000   10.945000
H   -2.173000   2.673000   10.499000
O   -4.955376   -2.978700   2.629106
H   -4.736621   -2.409285   1.799012
H   -4.367306   -3.822311   2.550171
O   -6.124000   2.724000   5.608000
H   -5.793000   3.549000   5.044000
H   -7.131000   2.804000   5.880000
O   9.876000   9.684000   -2.082000
H   10.070000   9.926000   -3.068000
H   10.735000   9.665000   -1.506000
O   -9.890000   2.752000   -3.168000
H   -10.300000   2.158000   -3.934000
H   -8.918000   2.929000   -3.235000
O   6.752000   11.950000   1.133000
H   7.552000   11.947000   0.499000
H   6.708000   12.977000   1.349000
O   -0.013838   9.183096   1.993157
H   -0.082491   10.164408   1.682584
H   0.655806   8.723291   1.344154
O   6.948000   -6.404000   9.814000
H   7.837000   -6.757000   10.175000
H   6.537000   -6.010000   10.701000
O   -3.093000   12.601000   -8.195000
H   -2.293000   12.105000   -8.724000
H   -3.775000   11.901000   -7.763000
O   7.913000   -1.864000   3.438000
H   8.755000   -1.471000   3.828000
H   7.948000   -2.915000   3.666000
O   6.168000   8.354000   7.590000
H   5.798000   8.535000   6.644000
H   7.242000   8.457000   7.601000
O   2.996000   7.507000   -6.885000
H   2.430000   8.179000   -7.415000
H   3.143000   6.608000   -7.398000
O   8.247000   -9.031000   8.857000
H   7.763000   -8.850000   7.956000
H   7.974000   -9.838000   9.395000
O   -6.173000   -1.154000   9.289000
H   -7.055000   -0.636000   9.102000
H   -6.382000   -2.141000   9.546000
O   6.464000   -2.928000   8.124000
H   6.297000   -1.907000   7.936000
H   7.183000   -3.116000   7.476000
O   4.920000   -3.398000   -8.873000
H   5.670000   -2.808000   -8.553000
H   4.809000   -3.141000   -9.889000
O   5.239000   -8.078000   -8.496000
H   5.300000   -7.596000   -9.448000
H   6.204000   -8.056000   -8.208000
O   -2.746000   10.053000   5.832000
H   -3.114000   9.080000   5.768000
H   -1.843000   10.080000   5.422000
O   -4.824000   10.817000   -7.323000
H   -5.462000   10.698000   -6.513000
H   -4.343000   9.919000   -7.518000
O   -1.898000   -0.710000   13.094000
H   -1.832000   -1.688000   13.527000
H   -1.631000   0.181000   13.662000
O   4.649000   11.110000   -0.624000
H   3.727000   11.460000   -0.283000
H   5.184000   11.425000   0.178000
O   -2.329000   -9.109000   -5.981000
H   -3.101000   -8.916000   -5.320000
H   -1.530000   -8.550000   -5.621000
O   -9.633000   -6.892000   7.692000
H   -9.389000   -7.557000   6.964000
H   -10.655000   -6.817000   7.764000
O   2.408000   -11.669000   6.032000
H   1.394000   -11.685000   6.095000
H   2.771000   -12.629000   6.113000
O   3.311767   4.531117   3.425544
H   3.220415   3.510794   3.584618
H   2.359788   4.938173   3.476002
O   -1.737423   7.333395   0.781696
H   -1.158958   7.948485   1.376726
H   -2.010624   6.510486   1.326822
O   -7.870000   7.122000   -9.251000
H   -6.880000   7.126000   -9.007000
H   -8.257000   6.287000   -8.762000
O   -5.109000   8.262000   4.540000
H   -4.571000   8.384000   3.635000
H   -4.501000   7.839000   5.282000
O   7.666000   -1.693000   -5.603000
H   8.464000   -2.269000   -5.215000
H   6.959000   -1.832000   -4.891000
O   -9.796000   6.370000   -2.208000
H   -10.084000   7.266000   -1.994000
H   -10.446000   5.615000   -1.794000
O   10.701000   -4.950000   -3.035000
H   11.022000   -5.334000   -3.913000
H   11.551000   -4.785000   -2.471000
O   -6.306000   -6.431000   10.235000
H   -5.611000   -6.911000   9.673000
H   -7.245000   -6.885000   10.150000
O   8.409000   -6.684000   -1.618000
H   7.974000   -6.076000   -2.310000
H   9.435000   -6.669000   -1.703000
O   -5.407000   4.612000   3.738000
H   -4.487000   4.563000   3.316000
H   -6.011000   4.734000   2.909000
O   10.858000   -3.264000   3.071000
H   10.729000   -3.198000   2.056000
H   10.295000   -2.627000   3.602000
O   -4.527971   -1.514520   0.311879
H   -3.805884   -0.837299   0.015805
H   -5.354589   -1.004419   0.663794
O   -3.536000   -10.634000   8.308000
H   -3.604000   -11.632000   8.028000
H   -4.517000   -10.403000   8.153000
O   4.901000   -4.735000   5.393000
H   4.992000   -3.740000   5.600000
H   5.512000   -5.293000   5.971000
O   -3.462000   -10.465000   -10.414000
H   -2.801000   -10.319000   -9.686000
H   -4.467000   -10.134000   -10.193000
O   8.626000   3.518000   6.281000
H   8.249000   4.292000   5.693000
H   8.374000   3.808000   7.211000
O   12.417000   0.269000   2.856000
H   12.020000   -0.273000   2.018000
H   12.322000   1.249000   2.645000
O   7.236000   0.827000   -0.514000
H   8.278000   0.724000   -0.447000
H   6.918000   0.020000   0.078000
O   2.313000   -3.031000   -7.568000
H   3.219000   -3.391000   -7.786000
H   1.594000   -3.485000   -8.109000
O   2.816000   2.740000   -7.916000
H   2.892000   2.273000   -6.991000
H   3.774000   2.613000   -8.229000
O   -8.072000   -4.221000   7.054000
H   -7.309000   -4.144000   6.253000
H   -8.587000   -5.126000   6.778000
O   -3.457000   7.296000   6.470000
H   -3.218000   7.711000   7.368000
H   -4.018000   6.477000   6.750000
O   3.571000   -7.522000   7.086000
H   3.290000   -7.909000   6.194000
H   4.529000   -7.351000   7.062000
O   2.627000   15.637000   -2.685000
H   3.148000   14.776000   -2.463000
H   3.255000   16.201000   -3.302000
O   1.713000   -6.014000   8.605000
H   1.923000   -5.010000   8.546000
H   2.473000   -6.446000   8.017000
O   7.596000   -8.492000   6.227000
H   8.495000   -8.395000   5.749000
H   7.119000   -9.309000   5.817000
O   -6.540000   -3.208000   5.014000
H   -5.677000   -2.899000   4.498000
H   -7.328000   -2.824000   4.484000
O   -10.505000   0.663000   -5.016000
H   -10.522000   0.183000   -4.040000
H   -11.244000   0.286000   -5.565000
O   4.986000   -10.960000   7.072000
H   4.396000   -10.990000   6.246000
H   4.387000   -10.433000   7.769000
O   -2.453023   2.446426   3.286366
H   -1.454400   2.503206   3.559688
H   -2.878198   1.908160   4.067835
O   10.685000   3.734000   4.435000
H   10.175000   3.477000   5.286000
H   10.175000   3.288000   3.681000
O   -1.748000   -10.974000   -2.709000
H   -1.826000   -11.100000   -1.702000
H   -1.604000   -10.001000   -2.859000
O   6.207000   1.342000   -3.058000
H   6.930000   1.842000   -3.600000
H   6.535000   1.187000   -2.088000
O   -6.715000   -7.312000   3.833000
H   -6.412000   -7.119000   2.886000
H   -6.980000   -8.294000   4.011000
O   9.662000   -10.080000   -0.489000
H   9.729000   -10.760000   -1.245000
H   9.056000   -9.348000   -0.844000
O   -6.075000   -9.989000   -10.105000
H   -6.587000   -10.873000   -9.996000
H   -6.262000   -9.464000   -9.232000
O   6.277000   5.002000   -7.788000
H   5.978000   5.543000   -6.963000
H   6.100000   5.535000   -8.618000
O   4.825000   9.272000   -9.976000
H   4.210000   8.529000   -10.424000
H   4.368000   9.668000   -9.178000
O   -7.175000   3.957000   -3.583000
H   -6.169000   3.681000   -3.743000
H   -7.655000   4.345000   -4.461000
O   6.531000   9.359000   2.441000
H   6.487000   10.258000   1.945000
H   6.301000   8.614000   1.714000
O   -4.175000   0.353000   11.289000
H   -3.589000   -0.367000   11.737000
H   -4.462000   0.024000   10.367000
O   -0.759845   -5.974259   2.040667
H   -0.432202   -6.152461   3.004569
H   0.052070   -5.670879   1.476569
O   5.750000   1.146000   4.296000
H   6.737000   0.935000   4.639000
H   5.185000   1.586000   5.087000
O   3.706072   2.234222   -3.416845
H   3.391682   2.398344   -2.463042
H   4.689825   1.897184   -3.364206
O   2.986000   4.702000   10.517000
H   3.586000   5.370000   11.005000
H   2.781000   3.888000   11.103000
O   -0.619000   -4.282000   -9.863000
H   -1.647000   -4.226000   -9.691000
H   -0.189000   -4.458000   -8.987000
O   10.445000   -0.223000   -3.583000
H   10.176000   0.278000   -4.406000
H   10.077000   -1.153000   -3.484000
O   10.286000   -7.778000   5.433000
H   10.244000   -7.137000   4.625000
H   10.206000   -7.343000   6.356000
O   -3.276000   8.598000   -7.888000
H   -2.448000   8.760000   -7.261000
H   -2.993000   8.759000   -8.875000
O   5.218081   -1.857691   5.414561
H   5.813461   -1.320854   6.058090
H   5.506948   -1.603522   4.467889
O   -10.104000   2.543000   -0.390000
H   -9.966000   2.493000   -1.449000
H   -10.215000   1.631000   0.038000
O   3.670745   4.635439   -4.972649
H   2.683494   4.894559   -5.090304
H   3.756508   3.765413   -4.435869
O   -5.328000   -7.087000   -1.112000
H   -6.026000   -7.601000   -1.689000
H   -5.589000   -7.100000   -0.079000
O   0.606360   5.148379   3.662278
H   -0.188003   5.688923   4.015568
H   0.390158   4.149636   3.806592
O   -4.457000   8.328000   -11.413000
H   -5.391000   8.078000   -11.748000
H   -4.246000   7.663000   -10.636000
O   -13.204000   2.526000   -0.569000
H   -12.584000   3.342000   -0.504000
H   -14.173000   2.888000   -0.383000
O   -8.722000   7.450000   -4.547000
H   -9.401000   7.093000   -3.830000
H   -9.211000   8.284000   -4.967000
O   7.358000   4.942000   1.886000
H   7.405000   5.018000   2.925000
H   7.311000   3.918000   1.783000
O   11.075000   -1.911000   6.811000
H   10.893000   -1.821000   7.806000
H   12.040000   -2.302000   6.708000
O   -11.233000   -6.450000   -2.785000
H   -10.340000   -5.868000   -2.765000
H   -11.364000   -6.829000   -1.813000
O   -12.693000   0.552000   -2.470000
H   -12.700000   1.328000   -1.807000
H   -13.385000   0.721000   -3.198000
O   -4.515000   -6.853000   -12.376000
H   -5.216000   -6.564000   -11.603000
H   -4.014000   -6.017000   -12.659000
O   -7.444000   -9.324000   -1.322000
H   -7.993000   -8.876000   -0.565000
H   -7.941000   -8.992000   -2.238000
O   -3.308000   -4.330000   -9.826000
H   -3.749000   -3.959000   -10.661000
H   -3.401000   -5.372000   -9.817000
O   8.272000   -7.616000   0.894000
H   8.135000   -7.354000   -0.090000
H   7.707000   -8.419000   0.973000
O   -0.135000   0.602000   10.877000
H   -0.741000   1.403000   10.639000
H   -0.656000   -0.060000   11.471000
O   -0.332000   -0.089000   -8.085000
H   0.266000   -0.124000   -8.891000
H   -0.351000   0.881000   -7.787000
O   -0.613000   -7.369000   7.518000
H   0.318000   -7.163000   7.853000
H   -0.746000   -6.851000   6.658000
O   -10.156000   -2.548000   -0.312000
H   -10.680000   -3.271000   0.202000
H   -9.186000   -2.800000   -0.492000
O   7.027000   2.267000   1.821000
H   7.028000   1.697000   0.937000
H   6.303000   1.910000   2.477000
O   -3.548000   -4.340000   -12.852000
H   -3.966000   -3.585000   -13.445000
H   -2.582000   -4.108000   -12.636000
O   4.490000   12.284000   -7.777000
H   4.925000   11.337000   -7.645000
H   5.093000   13.135000   -7.700000
O   1.538000   9.047000   -8.724000
H   1.939000   8.554000   -9.546000
H   1.764000   10.040000   -8.785000
O   -7.269000   5.243000   -1.227000
H   -7.076000   4.590000   -2.034000
H   -7.910000   5.950000   -1.626000
O   5.365000   3.345000   9.203000
H   4.517000   3.861000   9.479000
H   6.211000   3.969000   9.135000
O   -5.997000   -2.883000   -4.481000
H   -5.679000   -2.399000   -5.328000
H   -6.905000   -2.425000   -4.228000
O   7.662000   -4.388000   0.434000
H   6.760000   -4.145000   0.842000
H   7.954000   -5.332000   0.413000
O   2.081000   -3.363000   8.257000
H   2.211000   -2.697000   7.459000
H   3.020000   -3.491000   8.727000
O   7.174000   8.564000   -5.574000
H   7.302000   9.109000   -4.728000
H   6.581000   7.750000   -5.568000
O   2.877000   7.599000   -10.608000
H   2.359000   7.885000   -11.438000
H   3.185000   6.663000   -10.866000
O   -4.023397   5.273347   -0.337915
H   -3.990364   5.535894   -1.338702
H   -4.654225   5.986826   0.065804
O   8.647000   4.828000   -6.746000
H   8.909000   5.767000   -6.410000
H   7.982000   4.801000   -7.490000
O   0.531000   -12.805000   -3.584000
H   0.444000   -13.856000   -3.756000
H   -0.314000   -12.486000   -3.041000
O   5.807000   -5.501000   3.079000
H   5.573000   -6.443000   2.738000
H   5.352000   -5.169000   3.897000
O   2.125000   2.705000   -11.939000
H   2.693000   2.826000   -12.773000
H   1.134000   3.044000   -12.039000
O   4.395000   -3.834000   9.742000
H   5.079000   -3.646000   8.923000
H   4.926000   -4.021000   10.637000
O   6.612000   2.705000   -9.224000
H   6.407000   3.439000   -8.560000
H   7.386000   3.021000   -9.865000
O   6.937000   -0.399000   7.237000
H   7.481000   0.135000   6.500000
H   6.849000   0.162000   8.057000
O   -4.408000   11.392000   -3.892000
H   -5.407000   11.355000   -4.240000
H   -4.480000   12.092000   -3.170000
O   -4.658743   2.862451   -3.608088
H   -4.587820   2.827421   -2.564627
H   -3.712682   2.639683   -3.954325
O   6.819000   -1.643000   -8.201000
H   6.964000   -1.662000   -7.151000
H   7.721000   -1.639000   -8.700000
O   -2.852000   -6.778000   8.928000
H   -1.894000   -7.011000   8.681000
H   -2.718000   -5.895000   9.416000
O   -3.566173   -5.534561   -2.306324
H   -4.221804   -6.192965   -1.831381
H   -3.942582   -4.605758   -2.049561
O   1.663000   2.248000   11.691000
H   1.481000   2.757000   12.555000
H   0.975000   1.507000   11.677000
O   3.026000   -9.245000   -6.066000
H   2.243000   -9.756000   -5.614000
H   3.718000   -8.837000   -5.385000
O   -5.837000   -9.878000   4.413000
H   -5.835000   -10.841000   4.814000
H   -5.035000   -9.701000   3.793000
O   -11.965000   4.369000   -3.624000
H   -12.145000   5.179000   -2.990000
H   -11.079000   4.035000   -3.329000
O   -6.556000   10.578000   4.709000
H   -5.885000   9.817000   4.902000
H   -7.234000   10.521000   5.482000
O   -0.393000   10.031000   4.637000
H   -0.240000   9.432000   3.804000
H   0.120000   10.946000   4.670000
O   -1.763000   3.807000   6.296000
H   -1.649000   4.518000   5.595000
H   -0.888000   3.384000   6.569000
O   -3.631000   -11.699000   -5.829000
H   -3.048000   -10.867000   -5.911000
H   -3.007000   -12.382000   -5.561000
O   -4.589000   0.140000   -9.403000
H   -3.840000   -0.447000   -9.085000
H   -5.276000   -0.512000   -9.901000
O   -8.758000   6.741000   2.375000
H   -8.229000   7.589000   2.127000
H   -8.121000   5.971000   2.463000
O   -2.000071   8.894363   -1.397149
H   -1.923257   8.245590   -0.588137
H   -1.075766   8.925903   -1.850300
O   5.742069   -1.471120   -3.360881
H   4.723479   -1.586897   -3.233066
H   5.939450   -0.459931   -3.320312
O   -8.044000   5.136000   6.417000
H   -7.961000   5.820000   5.611000
H   -8.881000   4.565000   6.255000
O   2.825000   0.150000   9.748000
H   2.655000   0.957000   10.382000
H   3.476000   -0.393000   10.281000
O   9.253000   0.640000   -6.040000
H   9.599000   0.795000   -6.986000
H   8.808000   -0.261000   -5.891000
O   6.048000   -6.408000   7.201000
H   6.300000   -6.242000   8.187000
H   6.781000   -6.974000   6.724000
O   -11.197000   5.785000   1.923000
H   -11.754000   6.688000   2.091000
H   -10.240000   6.079000   2.100000
O   4.547000   5.016000   5.845000
H   4.121000   4.886000   4.867000
H   4.102000   5.718000   6.457000
O   -3.221000   -12.593000   1.415000
H   -3.027000   -11.716000   0.837000
H   -2.925000   -12.240000   2.317000
O   -8.345000   4.925000   -5.835000
H   -9.036000   4.761000   -6.474000
H   -8.408000   5.927000   -5.644000
O   2.309000   9.096000   -4.619000
H   2.744000   8.708000   -5.446000
H   1.804000   9.958000   -4.843000
O   2.960296   -1.580334   -2.957572
H   2.476213   -0.853874   -2.434925
H   2.517189   -1.651515   -3.890024
O   12.093000   1.980000   -2.276000
H   13.002000   1.816000   -1.762000
H   11.822000   1.095000   -2.653000
O   0.498000   -1.992000   10.396000
H   0.489000   -0.997000   10.381000
H   0.853000   -2.370000   9.507000
O   10.722000   4.028000   -7.966000
H   9.998000   4.204000   -7.217000
H   11.621000   3.954000   -7.518000
O   -5.138000   -1.029000   6.813000
H   -5.762000   -1.398000   6.030000
H   -5.491000   -1.140000   7.756000
O   0.817000   -10.000000   0.227000
H   1.055000   -9.210000   0.810000
H   1.300000   -10.799000   0.710000
O   -0.002000   -8.748000   3.914000
H   1.029000   -8.988000   4.007000
H   -0.133000   -7.905000   4.480000
O   10.303000   -0.848000   4.459000
H   11.051000   -0.309000   4.018000
H   10.611000   -1.227000   5.367000
O   -10.619000   2.037000   3.847000
H   -10.993000   1.059000   3.994000
H   -11.474000   2.521000   3.642000
O   -6.833000   -0.675000   1.533000
H   -7.048000   0.152000   2.155000
H   -7.033000   -1.530000   2.020000
O   -7.440000   7.299000   5.099000
H   -6.474000   7.601000   4.639000
H   -8.056000   7.836000   4.528000
O   7.266000   5.347000   4.638000
H   6.369000   5.137000   5.118000
H   7.314000   6.370000   4.686000
O   1.589000   -6.165000   -13.162000
H   1.602000   -6.120000   -12.061000
H   0.693000   -5.921000   -13.490000
O   0.546000   -5.186000   -7.731000
H   -0.129000   -4.953000   -6.999000
H   1.188000   -5.892000   -7.320000
O   -1.020000   8.667000   -9.534000
H   -1.043000   8.339000   -10.521000
H   -0.081000   8.503000   -9.129000
O   0.764000   2.544000   6.919000
H   1.581000   1.909000   6.977000
H   0.912000   3.355000   7.560000
O   -1.071000   -9.999000   7.545000
H   -2.059000   -10.080000   7.884000
H   -0.897000   -9.041000   7.448000
O   0.823000   -10.240000   9.295000
H   0.430000   -9.822000   10.160000
H   0.059000   -10.125000   8.556000
O   -9.540000   -3.145000   -7.397000
H   -9.836000   -3.167000   -8.329000
H   -8.668000   -2.647000   -7.267000
O   -0.358000   -8.313000   -10.111000
H   -0.361000   -8.632000   -11.093000
H   0.464000   -7.704000   -9.951000
O   0.466000   11.108000   -5.567000
H   0.836000   12.080000   -5.774000
H   -0.326000   11.223000   -5.007000
O   8.729000   3.235000   -1.835000
H   7.912000   3.655000   -1.301000
H   8.597000   3.092000   -2.816000
O   -3.648000   8.701000   2.294000
H   -3.698000   8.160000   1.421000
H   -3.801000   9.655000   2.016000
O   -8.171000   -1.373000   -4.018000
H   -9.074000   -1.338000   -3.530000
H   -7.549000   -0.860000   -3.388000
O   7.218000   -3.523000   -2.148000
H   7.219000   -3.776000   -1.157000
H   6.547000   -2.782000   -2.388000
O   -9.039000   -2.219000   3.891000
H   -8.799000   -1.570000   4.661000
H   -9.947000   -2.653000   4.022000
O   2.585000   11.469000   -9.293000
H   3.251000   11.939000   -8.668000
H   2.509000   12.111000   -10.018000
O   -7.127000   11.105000   -4.254000
H   -7.913000   11.752000   -4.446000
H   -7.205000   10.405000   -3.464000
O   1.601000   -2.049000   12.962000
H   1.122000   -1.959000   12.141000
H   1.124000   -1.473000   13.707000
O   -0.014042   3.137181   -5.127904
H   0.309090   4.119039   -5.168418
H   0.818907   2.524825   -5.105575
O   -6.386000   -9.713000   8.662000
H   -5.812000   -8.926000   8.239000
H   -7.243000   -9.648000   8.093000
O   -11.522000   4.850000   -0.616000
H   -10.806000   4.135000   -0.518000
H   -11.735000   5.352000   0.222000
O   6.444000   -12.520000   1.368000
H   7.348000   -12.712000   0.946000
H   6.670000   -11.945000   2.188000
O   5.604000   8.720000   -0.283000
H   6.651000   8.723000   -0.371000
H   5.173000   9.663000   -0.386000
O   -1.235017   -6.952511   -2.230531
H   -2.011237   -6.269074   -2.195852
H   -0.968305   -7.029230   -3.228483
O   0.836000   -8.812000   -2.327000
H   0.927000   -9.284000   -1.437000
H   0.215000   -8.030000   -2.074000
O   -0.666000   -3.964000   11.784000
H   -0.126000   -3.261000   11.250000
H   -0.075000   -4.781000   11.896000
O   -6.029000   7.886000   -5.472000
H   -5.318000   8.163000   -4.828000
H   -6.980000   7.860000   -5.100000
O   -7.472000   0.523000   -6.249000
H   -7.174000   -0.407000   -6.525000
H   -8.496000   0.564000   -6.056000
O   -2.112000   8.125000   8.722000
H   -2.511000   8.161000   9.646000
H   -1.664000   9.016000   8.532000
O   -11.754000   -2.236000   -6.029000
H   -10.838000   -2.644000   -6.266000
H   -12.099000   -1.522000   -6.707000
O   -3.372320   -5.233764   2.374499
H   -3.587212   -5.453430   3.360158
H   -2.371191   -5.434321   2.197568
O   -2.975878   4.961248   2.192799
H   -2.685956   4.019321   2.508941
H   -3.342138   4.920762   1.226848
O   -4.423000   2.516000   -11.607000
H   -5.383000   2.669000   -11.371000
H   -4.119000   1.680000   -11.098000
O   4.950000   2.428000   6.728000
H   5.132000   2.558000   7.697000
H   4.841000   3.369000   6.406000
O   -2.742000   0.153000   -13.736000
H   -3.299000   1.026000   -13.686000
H   -1.858000   0.368000   -13.253000
O   -5.286000   11.841000   2.790000
H   -4.650000   12.483000   3.270000
H   -5.875000   11.444000   3.484000
O   -0.236000   -8.790000   11.325000
H   -1.082000   -8.210000   11.569000
H   0.473000   -8.138000   11.258000
O   -4.601000   -2.946000   12.126000
H   -4.446000   -2.592000   13.095000
H   -4.047000   -2.375000   11.499000
O   -8.213000   -0.046000   -9.675000
H   -8.087000   0.841000   -9.191000
H   -7.469000   -0.748000   -10.048000
O   -6.804000   -2.055000   -7.519000
H   -5.957000   -2.513000   -7.237000
H   -6.623000   -1.692000   -8.482000
O   4.796000   -1.348000   10.758000
H   4.556000   -2.159000   10.173000
H   5.475000   -0.695000   10.285000
O   3.842000   9.887000   9.180000
H   4.544000   9.155000   8.883000
H   2.936000   9.833000   8.619000
O   10.932000   4.409000   -0.724000
H   11.799000   3.904000   -0.487000
H   10.308000   3.637000   -1.084000
O   4.888000   -3.095000   -11.767000
H   4.367000   -3.596000   -12.462000
H   4.889000   -2.120000   -12.010000
O   -5.071000   -7.584000   7.587000
H   -4.174000   -7.083000   7.905000
H   -5.045000   -7.581000   6.559000
O   2.788667   -5.796023   3.056051
H   2.521546   -5.465086   3.994486
H   3.309464   -6.669750   3.123747
O   -3.435000   4.545000   -8.388000
H   -4.247000   4.947000   -7.952000
H   -3.494000   3.553000   -8.056000
O   9.163000   0.119000   9.819000
H   9.803000   0.931000   9.655000
H   8.195000   0.340000   9.618000
O   -7.204000   -0.583000   -1.340000
H   -6.745000   -0.008000   -1.999000
H   -7.360000   -0.313000   -0.367000
O   -0.451000   0.709000   -12.184000
H   -0.994000   0.965000   -11.372000
H   0.328000   0.012000   -11.862000
O   -4.523000   -5.675000   4.823000
H   -5.111000   -5.049000   5.356000
H   -5.150000   -6.393000   4.432000
O   9.762000   0.909000   -0.949000
H   9.348000   1.849000   -1.233000
H   10.022000   0.526000   -1.875000
O   -5.528000   5.916000   9.377000
H   -5.688000   5.233000   10.112000
H   -5.533000   5.438000   8.435000
O   8.350000   2.529000   -4.406000
H   8.888000   1.899000   -5.051000
H   8.410000   3.493000   -4.771000
O   2.836000   6.540000   7.262000
H   2.159000   5.943000   7.663000
H   2.498000   7.513000   7.285000
O   3.345000   -9.728000   8.540000
H   3.246000   -8.786000   8.105000
H   2.427000   -9.950000   9.046000
O   4.958000   -8.250000   -3.904000
H   5.115000   -9.121000   -3.311000
H   5.896000   -7.987000   -4.260000
O   5.030000   -7.944000   2.300000
H   4.409000   -8.069000   1.523000
H   5.082000   -8.826000   2.842000
O   2.355000   -5.202000   13.133000
H   2.239000   -4.198000   12.990000
H   3.296000   -5.284000   13.485000
O   -6.546000   -11.925000   -1.498000
H   -5.800000   -11.928000   -2.258000
H   -6.926000   -11.013000   -1.539000
O   2.217597   -4.950027   5.634586
H   3.254164   -4.922792   5.611542
H   1.909293   -4.477234   6.487008
O   -2.365000   -7.267000   11.865000
H   -3.192000   -7.347000   11.245000
H   -2.742000   -6.988000   12.766000
O   4.803000   -10.764000   3.644000
H   4.725000   -11.734000   3.949000
H   5.808000   -10.568000   3.734000
O   -2.046000   11.806000   -1.179000
H   -2.292000   10.833000   -1.060000
H   -2.746000   12.498000   -0.802000
O   -2.198049   1.837750   -4.277810
H   -1.751066   1.515391   -3.403491
H   -1.457830   2.425347   -4.711026
O   9.014000   11.519000   -0.116000
H   9.987000   11.691000   0.058000
H   8.869000   10.551000   -0.150000
O   -5.601000   -6.506000   1.510000
H   -4.570000   -6.190000   1.647000
H   -6.012000   -5.664000   1.151000
O   -3.295517   0.844421   5.332530
H   -2.538280   0.956118   6.024995
H   -4.012782   0.241128   5.737844
O   -2.769000   -7.004000   -10.190000
H   -3.185000   -7.189000   -11.155000
H   -1.858000   -7.370000   -10.107000
O   -0.829000   -13.115000   3.379000
H   -1.355000   -13.960000   3.691000
H   0.166000   -13.283000   3.280000
O   -8.035000   10.320000   -0.139000
H   -8.795000   10.960000   -0.115000
H   -8.099000   9.711000   -0.915000
O   -7.516000   -3.096000   -0.665000
H   -7.494000   -2.070000   -0.917000
H   -6.524000   -3.326000   -0.897000
O   4.194241   0.699247   0.877610
H   4.530855   1.644429   0.724703
H   4.959211   0.042051   1.070836
O   3.410000   -7.499000   -1.860000
H   4.041000   -7.832000   -2.586000
H   2.480000   -7.905000   -2.211000
O   -4.006038   -4.803509   -5.001478
H   -4.823479   -4.207784   -4.808536
H   -3.810227   -5.313139   -4.126588
O   1.411000   9.173000   6.775000
H   1.003000   9.427000   7.696000
H   0.705000   9.460000   6.074000
O   -9.069000   -8.483000   -3.299000
H   -9.422000   -9.193000   -4.000000
H   -9.738000   -7.715000   -3.041000
O   9.034000   -5.449000   -6.089000
H   8.976000   -5.338000   -7.136000
H   9.957000   -5.749000   -5.870000
O   1.158000   -2.482000   -14.049000
H   0.808000   -2.587000   -13.083000
H   2.125000   -2.878000   -14.227000
O   -4.326000   6.213000   -2.889000
H   -4.538000   7.172000   -3.078000
H   -4.025000   5.825000   -3.732000
O   -7.330000   1.297000   3.305000
H   -8.003000   1.947000   2.902000
H   -6.691000   1.842000   3.913000
O   -4.952734   -3.273901   -1.715375
H   -4.675313   -2.559157   -1.016753
H   -5.171692   -2.867498   -2.631881
O   2.066000   -6.779000   -6.325000
H   2.722000   -6.213000   -5.790000
H   2.406000   -7.766000   -6.338000
O   -0.502642   -6.954419   -4.930970
H   0.415308   -7.090009   -5.372903
H   -0.874930   -6.052740   -5.265620
O   9.438000   -2.682000   -3.315000
H   10.010000   -3.522000   -3.221000
H   8.766000   -2.841000   -2.542000
O   6.558000   0.826000   9.659000
H   6.768000   0.994000   10.654000
H   6.406000   1.782000   9.285000
O   7.856000   8.413000   -8.714000
H   7.864000   8.323000   -7.705000
H   6.919000   8.676000   -9.128000
O   -1.675000   11.882000   -3.944000
H   -2.603000   11.404000   -3.993000
H   -1.394000   11.901000   -2.994000
O   -3.856000   5.154000   -11.078000
H   -3.807000   5.137000   -10.040000
H   -3.808000   4.215000   -11.413000
O   9.794000   -6.376000   2.746000
H   10.715000   -6.320000   2.430000
H   9.244000   -6.945000   2.044000
O   -11.443000   -4.467000   1.089000
H   -12.439000   -4.380000   0.811000
H   -11.188000   -5.341000   1.565000
O   0.893000   13.590000   -6.161000
H   1.038000   14.126000   -7.023000
H   0.034000   13.936000   -5.787000
O   -8.725000   -1.148000   6.458000
H   -8.366000   -2.115000   6.595000
H   -9.740000   -1.102000   6.703000
O   -6.571000   -11.105000   -4.979000
H   -6.292000   -11.745000   -5.750000
H   -5.782000   -11.015000   -4.384000
O   5.170975   -3.487733   1.163838
H   5.060209   -4.193701   1.905112
H   4.339096   -3.485639   0.550191
O   2.772000   -9.282000   4.914000
H   3.686000   -9.421000   4.526000
H   2.546000   -10.182000   5.451000
O   -1.233000   14.489000   -4.661000
H   -1.606000   13.592000   -4.338000
H   -2.142000   14.867000   -4.947000
O   -3.765000   2.015000   -7.530000
H   -4.414000   1.362000   -8.023000
H   -3.665000   1.826000   -6.573000
O   -3.577513   -0.375007   -3.500236
H   -3.109201   0.428304   -3.949257
H   -4.595835   -0.220934   -3.586460
O   2.722000   0.826000   7.276000
H   2.628000   0.483000   8.247000
H   3.688000   1.129000   7.105000
O   3.211740   1.840375   3.680131
H   2.768410   1.679836   2.766050
H   4.125753   1.368900   3.710612
O   1.472530   8.214115   -0.029043
H   2.356396   7.692854   -0.158605
H   1.155172   8.563994   -0.943903
O   -1.415612   -4.498083   -5.869172
H   -1.231749   -3.482415   -5.889538
H   -2.405102   -4.637051   -5.592852
O   5.477000   -6.895000   -11.074000
H   6.032000   -5.999000   -10.970000
H   4.478000   -6.627000   -11.084000
O   3.384000   4.949000   -10.496000
H   3.012000   4.160000   -11.019000
H   2.609000   5.220000   -9.874000
O   9.766000   2.543000   2.378000
H   10.140000   2.323000   1.474000
H   8.776000   2.430000   2.201000
O   1.629000   5.316000   -8.084000
H   0.593000   5.431000   -8.289000
H   1.945000   4.330000   -8.239000
O   2.636000   12.856000   3.394000
H   2.046000   13.678000   3.528000
H   2.800000   12.669000   2.423000
O   -3.631000   12.708000   5.430000
H   -3.395000   11.687000   5.675000
H   -4.386000   13.069000   6.050000
O   7.859000   -9.230000   -2.538000
H   7.777000   -8.254000   -2.193000
H   6.989000   -9.809000   -2.451000
O   9.854000   5.764000   -3.087000
H   8.847000   5.803000   -3.130000
H   10.191000   5.630000   -2.087000
O   -5.857000   -6.403000   -9.898000
H   -6.792000   -6.738000   -9.690000
H   -5.290000   -6.584000   -9.056000
O   -9.107000   -4.969000   -2.961000
H   -8.141000   -5.269000   -2.989000
H   -9.261000   -4.408000   -3.755000
O   10.990000   -0.962000   0.752000
H   10.460000   -0.468000   0.095000
H   10.887000   -1.999000   0.613000
O   0.078000   2.574000   -7.750000
H   -0.236000   2.639000   -6.789000
H   1.126000   2.504000   -7.752000
O   -8.240000   -9.882000   2.489000
H   -7.300000   -10.300000   2.443000
H   -8.875000   -10.661000   2.255000
O   -1.166532   -1.750757   -6.124167
H   -0.852763   -1.187561   -6.944033
H   -1.767724   -1.176424   -5.535809
O   -7.947000   1.111000   9.266000
H   -7.016000   1.258000   9.564000
H   -8.048000   1.397000   8.273000
O   5.567000   6.505000   -5.659000
H   6.000000   6.291000   -4.813000
H   4.666000   5.994000   -5.536000
O   3.839000   -5.307000   -4.824000
H   3.872000   -5.157000   -3.850000
H   4.452000   -4.717000   -5.284000
O   -2.388000   -3.206000   7.795000
H   -2.723000   -3.569000   8.672000
H   -2.569000   -2.216000   8.012000
O   -1.026000   11.299000   -9.294000
H   -1.076000   10.255000   -9.364000
H   -0.018000   11.545000   -9.366000
O   -5.060000   1.991000   8.081000
H   -5.575000   2.289000   7.196000
H   -5.184000   1.001000   8.093000
O   -9.693000   -5.907000   -6.993000
H   -10.603000   -6.168000   -6.572000
H   -9.662000   -4.880000   -7.058000
O   4.660000   -5.215000   -2.181000
H   4.340000   -6.173000   -1.915000
H   5.474000   -5.296000   -2.774000
O   -2.196000   10.862000   8.449000
H   -2.122000   11.923000   8.584000
H   -2.540000   10.677000   7.485000
O   -1.752000   -10.493000   3.018000
H   -1.357000   -11.431000   3.214000
H   -0.981000   -9.830000   3.269000
O   -2.943000   3.420000   8.768000
H   -2.618000   3.218000   7.832000
H   -3.905000   2.958000   8.808000
O   -4.415000   -11.741000   -3.073000
H   -3.494000   -11.253000   -3.121000
H   -4.361000   -12.724000   -3.509000
O   9.410000   6.986000   -5.528000
H   8.447000   7.510000   -5.434000
H   9.795000   6.753000   -4.572000
O   -7.205000   2.805000   -11.048000
H   -7.235000   2.605000   -10.016000
H   -8.155000   3.138000   -11.206000
O   -4.581000   -6.626000   -7.616000
H   -3.729000   -7.077000   -7.291000
H   -4.656000   -5.818000   -6.976000
O   1.163506   5.629184   -5.474212
H   1.308205   5.537032   -6.500069
H   1.503672   6.562334   -5.234247
O   6.483000   4.697000   -0.901000
H   5.639000   4.395000   -0.366000
H   6.986000   5.378000   -0.284000
O   -3.712000   -2.622000   -7.930000
H   -3.675000   -3.467000   -8.487000
H   -2.875000   -2.599000   -7.339000
O   -4.370000   8.790000   -2.995000
H   -3.616000   8.370000   -2.424000
H   -4.162000   9.771000   -3.130000
O   -3.563000   -8.475000   -3.534000
H   -3.339000   -7.823000   -2.747000
H   -4.475000   -8.804000   -3.633000
O   1.098000   4.641000   8.388000
H   0.157000   4.967000   8.549000
H   1.641000   4.903000   9.232000
O   6.398265   -1.040015   1.282151
H   5.885661   -1.932628   1.162275
H   7.017472   -1.208720   2.097111
O   -0.479000   4.182000   -11.721000
H   -0.896000   5.103000   -11.649000
H   -0.928000   3.478000   -11.104000
O   6.455000   6.404000   10.029000
H   5.951000   6.874000   9.247000
H   5.781000   6.400000   10.807000
O   2.382000   -11.469000   1.717000
H   2.906000   -10.989000   2.456000
H   2.479000   -12.473000   1.892000
O   9.509000   6.148000   0.894000
H   10.200000   5.488000   0.534000
H   8.741000   5.651000   1.320000
O   3.670000   13.313000   -5.158000
H   2.649000   13.342000   -5.296000
H   3.984000   12.899000   -6.045000
O   -8.408000   1.842000   6.727000
H   -8.321000   0.923000   6.298000
H   -9.269000   2.239000   6.393000
O   -7.846000   -9.891000   6.421000
H   -8.559000   -9.316000   5.963000
H   -6.979000   -9.870000   5.777000
O   4.893000   0.415000   -8.733000
H   5.417000   1.276000   -8.778000
H   5.561000   -0.281000   -8.353000
O   3.697000   -10.228000   -8.336000
H   3.294000   -10.005000   -7.402000
H   4.256000   -9.371000   -8.385000
O   -8.504000   -4.920000   1.118000
H   -9.433000   -4.885000   0.801000
H   -8.009000   -4.337000   0.458000
O   -7.369000   -4.295000   -10.577000
H   -6.855000   -5.007000   -10.046000
H   -7.559000   -4.560000   -11.541000
O   -6.179000   -9.036000   -7.653000
H   -6.023000   -9.574000   -6.812000
H   -5.802000   -8.151000   -7.594000
O   -0.211465   -1.594233   6.861386
H   0.704518   -1.834762   6.470401
H   -0.771360   -2.425568   7.085003
O   -3.537000   14.249000   -0.274000
H   -4.178000   13.948000   -0.960000
H   -3.951000   15.078000   0.059000
O   0.624715   9.280451   -2.418757
H   0.640916   10.296851   -2.366379
H   1.247507   9.000161   -3.194614
O   1.663361   -1.408161   -5.448480
H   2.053374   -1.971097   -6.229710
H   0.650185   -1.551247   -5.518976
O   -1.776000   2.211000   -9.910000
H   -2.502000   1.758000   -9.368000
H   -1.218000   2.655000   -9.155000
O   -8.848000   -8.009000   0.778000
H   -8.591000   -8.595000   1.593000
H   -8.834000   -7.104000   1.249000
O   -6.012000   -10.811000   1.184000
H   -5.224000   -10.284000   1.546000
H   -6.103000   -10.663000   0.206000
O   -4.161000   3.274000   12.218000
H   -3.143000   3.163000   12.059000
H   -4.586000   2.382000   12.171000
O   -1.243000   9.057000   -6.155000
H   -0.752000   8.307000   -5.797000
H   -0.572000   9.857000   -6.383000
O   9.710000   -6.735000   7.818000
H   9.583000   -5.721000   7.983000
H   9.365000   -7.390000   8.479000
O   3.179799   -3.526568   -0.781850
H   3.746628   -4.219936   -1.312893
H   2.986365   -2.773427   -1.452496
O   -0.032537   -6.151156   4.743399
H   0.831663   -5.695706   5.084691
H   -0.851629   -5.631671   5.132337
O   -8.467000   -7.194000   -8.846000
H   -8.272000   -8.156000   -8.521000
H   -8.934000   -6.736000   -7.984000
1212
Converted from rst7
C   0.671454   3.595942   0.288405
H   -0.053489   4.407041   0.389133
H   1.593114   3.905325   0.783175
H   0.276354   2.706716   0.785961
C   1.520086   4.539935   -1.908983
H   1.563174   4.344836   -2.982960
H   0.903077   5.422083   -1.723415
H   2.525416   4.743079   -1.539336
C   0.942683   3.344850   -1.186934
O   1.864589   2.267521   -1.373758
O   -0.277255   3.010443   -1.864475
O   2.345290   0.159004   -0.981492
O   -1.940912   1.617056   -2.109699
C   1.443428   0.988481   -1.126322
C   -0.749224   1.776262   -1.680174
C   0.040437   0.762652   -1.134997
C   -0.633734   -0.528194   -0.689587
H   -1.437919   -0.252150   0.007638
C   -1.343223   -1.302405   -1.766726
O   -2.053054   -0.777266   -2.674870
C   -1.187026   -2.709607   -1.610042
H   -1.675989   -3.448756   -2.231017
C   -0.392734   -2.911369   -0.538678
H   -0.170207   -3.879479   -0.108230
C   0.178151   -1.655540   0.053892
H   1.221039   -1.594961   -0.276697
N   0.163401   -1.686708   1.491824
C   1.148421   -0.815201   2.128931
H   1.133686   0.202876   1.700542
H   0.851905   -0.704082   3.174525
C   2.555970   -1.399400   2.077074
H   3.241101   -0.802357   2.685994
H   2.953251   -1.417491   1.057961
H   2.545854   -2.420920   2.469052
C   -1.169481   -1.648258   2.096939
H   -1.554774   -0.616771   2.174645
H   -1.851976   -2.190795   1.429794
C   -1.208871   -2.311546   3.468185
H   -0.839937   -3.339371   3.408499
H   -0.603526   -1.769149   4.198800
H   -2.231861   -2.322775   3.853038
H   -2.094657   0.266720   -2.504580
O   -3.300429   1.092655   1.040028
H   -2.820409   1.605795   1.798118
H   -3.758158   1.753298   0.394135
O   7.438000   -10.673000   3.954000
H   7.802000   -11.399000   4.537000
H   8.255000   -10.299000   3.467000
O   -1.236000   6.703000   -11.392000
H   -0.919000   7.130000   -12.294000
H   -2.223000   6.273000   -11.517000
O   -10.467000   0.051000   0.978000
H   -10.188000   -0.762000   0.415000
H   -10.439000   -0.287000   1.938000
O   2.012000   -7.146000   11.061000
H   2.030000   -6.438000   11.830000
H   2.072000   -6.594000   10.151000
O   2.480852   1.335574   -5.661070
H   2.955329   1.661648   -4.801019
H   2.245424   0.336339   -5.580980
O   9.235000   -4.068000   9.901000
H   8.421000   -3.926000   9.325000
H   10.003000   -3.400000   9.606000
O   3.736000   -5.822000   -9.036000
H   3.631000   -6.415000   -8.249000
H   4.290000   -4.965000   -8.840000
O   -5.513000   13.468000   -2.311000
H   -5.816000   12.708000   -1.670000
H   -6.282000   14.049000   -2.525000
O   8.666000   -3.456000   6.574000
H   9.221000   -2.621000   6.510000
H   8.630000   -3.787000   5.618000
O   5.958000   6.116000   -10.453000
H   6.739000   6.040000   -11.131000
H   5.133000   5.529000   -10.618000
O   -1.238000   -9.924000   -8.381000
H   -0.887000   -9.096000   -8.889000
H   -1.764000   -9.629000   -7.539000
O   5.165000   9.617000   -7.295000
H   5.803000   9.688000   -6.518000
H   4.508000   8.782000   -7.059000
O   11.793000   4.196000   -4.089000
H   11.036000   4.837000   -3.818000
H   11.820000   3.453000   -3.387000
O   -4.094244   2.733804   -1.004559
H   -3.179802   2.403239   -1.359204
H   -4.042239   3.723936   -0.693673
O   -5.819000   7.218000   0.188000
H   -6.507000   6.727000   -0.402000
H   -6.329000   7.751000   0.849000
O   6.846000   6.241000   -3.260000
H   6.719000   5.592000   -2.467000
H   6.345000   7.026000   -2.862000
O   -5.669000   11.704000   -0.308000
H   -6.447000   11.091000   -0.427000
H   -5.757000   12.093000   0.616000
O   0.970000   -2.345000   -11.175000
H   0.333000   -2.980000   -10.685000
H   1.513000   -1.777000   -10.546000
O   -13.168000   0.261000   1.127000
H   -13.241000   1.039000   0.458000
H   -12.227000   -0.093000   1.017000
O   -1.194000   14.501000   0.862000
H   -2.160000   14.232000   0.518000
H   -0.972000   15.346000   0.411000
O   -9.088000   -5.830000   4.317000
H   -8.804000   -5.000000   3.788000
H   -8.280000   -6.487000   4.266000
O   -7.388000   8.905000   -2.459000
H   -7.858000   8.109000   -2.949000
H   -6.444000   8.705000   -2.152000
O   3.434000   10.889000   5.201000
H   3.088000   11.503000   4.449000
H   2.742000   10.402000   5.750000
O   7.216000   10.068000   -3.256000
H   6.392000   9.661000   -2.858000
H   8.037000   9.997000   -2.654000
O   0.686874   2.377478   4.046376
H   1.584751   2.023981   3.688365
H   0.697505   2.348231   5.076475
O   -7.262000   -3.879000   9.616000
H   -6.919000   -4.819000   9.912000
H   -7.536000   -3.968000   8.639000
O   1.000000   -10.119000   -4.603000
H   0.824000   -11.057000   -4.148000
H   0.884000   -9.412000   -3.852000
O   -2.030000   5.937000   4.689000
H   -2.539000   5.932000   3.821000
H   -2.451000   6.633000   5.277000
O   -11.073000   -8.165000   -0.725000
H   -11.265000   -9.145000   -0.476000
H   -10.291000   -7.964000   -0.085000
O   -7.193000   9.101000   2.245000
H   -6.940000   9.669000   3.048000
H   -7.388000   9.619000   1.375000
O   4.222000   -11.740000   -0.384000
H   3.439000   -11.292000   0.152000
H   5.122000   -11.869000   0.114000
O   5.556000   -10.740000   -2.549000
H   5.322000   -10.975000   -1.619000
H   5.146000   -11.451000   -3.164000
O   -7.563000   2.509000   -8.214000
H   -7.414000   1.997000   -7.314000
H   -7.422000   3.567000   -8.080000
O   -0.208000   11.737000   0.908000
H   -0.805000   11.569000   0.100000
H   -0.568000   12.632000   1.252000
O   7.213000   -8.085000   -5.315000
H   7.804000   -8.571000   -6.025000
H   7.228000   -7.086000   -5.458000
O   -6.002493   0.534490   -3.862276
H   -5.618137   1.486891   -3.747334
H   -6.594144   0.534646   -4.710326
O   -9.412000   -3.022000   10.954000
H   -9.936000   -2.221000   10.561000
H   -8.755000   -3.442000   10.252000
O   -6.277000   -1.503000   -10.569000
H   -5.930000   -1.383000   -11.586000
H   -6.672000   -2.443000   -10.466000
O   2.776753   -7.814498   0.701357
H   3.071843   -7.782547   -0.291050
H   2.245361   -6.943611   0.844004
O   4.219000   -2.302000   13.426000
H   3.177000   -2.316000   13.329000
H   4.580000   -1.990000   12.530000
O   -5.562000   -5.583000   12.861000
H   -5.815000   -5.914000   11.892000
H   -5.267000   -4.596000   12.729000
O   8.309000   8.161000   -0.479000
H   8.785000   7.421000   0.069000
H   9.039000   8.444000   -1.206000
O   -6.243000   -8.425000   -4.316000
H   -7.147000   -8.199000   -3.889000
H   -6.332000   -9.396000   -4.642000
O   -5.277000   6.794000   -7.930000
H   -4.521000   7.467000   -8.012000
H   -5.656000   7.063000   -7.006000
O   -5.137000   5.056000   6.953000
H   -4.576000   4.435000   6.340000
H   -6.110000   5.045000   6.796000
O   10.510000   -3.674000   0.559000
H   11.264000   -4.385000   0.269000
H   9.508000   -3.902000   0.570000
O   -2.772000   -4.382000   10.258000
H   -3.612000   -4.464000   10.803000
H   -1.993000   -4.334000   10.960000
O   -0.003000   -11.737000   5.894000
H   -0.598000   -12.026000   5.167000
H   -0.486000   -11.098000   6.578000
O   -7.091000   8.067000   7.866000
H   -6.574000   7.360000   8.396000
H   -7.253000   7.670000   6.967000
O   5.046000   -0.263000   -11.548000
H   5.037000   0.090000   -10.603000
H   4.135000   -0.167000   -11.875000
O   7.039000   -5.118000   -4.332000
H   7.801000   -5.049000   -4.993000
H   7.239000   -4.393000   -3.661000
O   -8.907000   3.394000   2.184000
H   -9.420000   3.306000   1.292000
H   -9.649000   2.963000   2.785000
O   3.687394   6.899980   -0.542927
H   3.896241   5.990913   -0.110626
H   4.449397   7.566654   -0.309176
O   13.157000   -4.360000   3.860000
H   12.233000   -3.934000   3.527000
H   13.344000   -4.098000   4.772000
O   8.158000   1.070000   5.183000
H   8.395000   1.995000   5.583000
H   8.994000   0.648000   4.755000
O   4.244345   4.335636   0.658963
H   4.175139   3.309364   0.574948
H   4.094479   4.597416   1.644590
O   -0.907000   5.501000   -8.887000
H   -1.152000   6.094000   -9.712000
H   -1.771000   5.167000   -8.428000
O   0.730000   -11.628000   -7.014000
H   0.275000   -11.019000   -7.698000
H   0.969000   -10.991000   -6.280000
O   -1.322000   5.702000   9.215000
H   -1.463000   6.619000   8.797000
H   -2.114000   5.094000   8.874000
O   -10.347000   -0.928000   -2.557000
H   -11.053000   -0.175000   -2.347000
H   -10.232000   -1.533000   -1.702000
O   -3.116000   -0.669000   8.666000
H   -3.866000   -0.648000   7.943000
H   -2.376000   0.030000   8.419000
O   -1.276178   0.781096   7.262866
H   -0.852151   -0.157227   7.099611
H   -0.509151   1.469366   7.220700
O   2.758000   12.449000   0.620000
H   1.804000   12.082000   0.531000
H   2.719000   13.442000   0.549000
O   1.645692   -5.293123   0.769900
H   2.105845   -5.260864   1.706388
H   2.123676   -4.614357   0.154712
O   1.719000   0.353000   -9.928000
H   1.633000   1.223000   -10.473000
H   2.558000   0.339000   -9.309000
O   -6.852000   4.839000   1.543000
H   -7.764000   4.427000   1.768000
H   -6.834000   5.050000   0.536000
O   5.456000   9.061000   4.971000
H   4.650000   9.731000   4.950000
H   5.964000   8.928000   4.107000
O   -2.161663   -7.717815   0.470163
H   -1.865618   -7.506237   -0.488834
H   -1.623608   -7.120687   1.116738
O   -2.093462   -4.977935   5.824355
H   -3.026387   -5.274507   5.499801
H   -2.214815   -4.295220   6.599232
O   -2.096000   -10.576000   -0.038000
H   -2.326000   -9.760000   0.508000
H   -1.057000   -10.543000   -0.030000
O   4.449000   13.429000   -2.654000
H   4.718000   12.553000   -2.209000
H   4.124000   13.301000   -3.627000
O   8.226000   -4.704000   3.942000
H   8.853000   -5.394000   3.509000
H   7.332000   -4.914000   3.490000
O   2.583258   -1.692483   6.237632
H   2.510908   -0.702628   6.531541
H   3.495165   -1.805927   5.767670
O   -3.928000   -9.164000   2.240000
H   -3.021000   -9.588000   2.587000
H   -3.748000   -8.465000   1.485000
O   1.487000   -6.178000   -10.432000
H   2.297000   -6.022000   -9.727000
H   0.881000   -5.331000   -10.389000
O   4.893000   8.244000   -3.154000
H   4.462000   7.989000   -2.237000
H   4.245000   8.765000   -3.692000
O   -1.452000   2.902000   11.246000
H   -0.627000   3.481000   10.945000
H   -2.173000   2.673000   10.499000
O   -4.763575   -2.828617   2.856436
H   -4.542991   -2.189650   2.083660
H   -4.231847   -3.694655   2.682463
O   -6.124000   2.724000   5.608000
H   -5.793000   3.549000   5.044000
H   -7.131000   2.804000   5.880000
O   9.876000   9.684000   -2.082000
H   10.070000   9.926000   -3.068000
H   10.735000   9.665000   -1.506000
O   -9.890000   2.752000   -3.168000
H   -10.300000   2.158000   -3.934000
H   -8.918000   2.929000   -3.235000
O   6.752000   11.950000   1.133000
H   7.552000   11.947000   0.499000
H   6.708000   12.977000   1.349000
O   0.055008   9.168116   1.891616
H   -0.039921   10.161884   1.628915
H   0.650065   8.747055   1.152466
O   6.948000   -6.404000   9.814000
H   7.837000   -6.757000   10.175000
H   6.537000   -6.010000   10.701000
O   -3.093000   12.601000   -8.195000
H   -2.293000   12.105000   -8.724000
H   -3.775000   11.901000   -7.763000
O   7.913000   -1.864000   3.438000
H   8.755000   -1.471000   3.828000
H   7.948000   -2.915000   3.666000
O   6.168000   8.354000   7.590000
H   5.798000   8.535000   6.644000
H   7.242000   8.457000   7.601000
O   2.996000   7.507000   -6.885000
H   2.430000   8.179000   -7.415000
H   3.143000   6.608000   -7.398000
O   8.247000   -9.031000   8.857000
H   7.763000   -8.850000   7.956000
H   7.974000   -9.838000   9.395000
O   -6.173000   -1.154000   9.289000
H   -7.055000   -0.636000   9.102000
H   -6.382000   -2.141000   9.546000
O   6.464000   -2.928000   8.124000
H   6.297000   -1.907000   7.936000
H   7.183000   -3.116000   7.476000
O   4.920000   -3.398000   -8.873000
H   5.670000   -2.808000   -8.553000
H   4.809000   -3.141000   -9.889000
O   5.239000   -8.078000   -8.496000
H   5.300000   -7.596000   -9.448000
H   6.204000   -8.056000   -8.208000
O   -2.746000   10.053000   5.832000
H   -3.114000   9.080000   5.768000
H   -1.843000   10.080000   5.422000
O   -4.824000   10.817000   -7.323000
H   -5.462000   10.698000   -6.513000
H   -4.343000   9.919000   -7.518000
O   -1.898000   -0.710000   13.094000
H   -1.832000   -1.688000   13.527000
H   -1.631000   0.181000   13.662000
O   4.649000   11.110000   -0.624000
H   3.727000   11.460000   -0.283000
H   5.184000   11.425000   0.178000
O   -2.329000   -9.109000   -5.981000
H   -3.101000   -8.916000   -5.320000
H   -1.530000   -8.550000   -5.621000
O   -9.633000   -6.892000   7.692000
H   -9.389000   -7.557000   6.964000
H   -10.655000   -6.817000   7.764000
O   2.408000   -11.669000   6.032000
H   1.394000   -11.685000   6.095000
H   2.771000   -12.629000   6.113000
O   3.360934   4.549265   3.402633
H   3.283232   3.523909   3.306936
H   2.408075   4.951928   3.472668
O   -1.650072   7.209571   0.820134
H   -1.043250   7.849075   1.357648
H   -1.925243   6.424723   1.415639
O   -7.870000   7.122000   -9.251000
H   -6.880000   7.126000   -9.007000
H   -8.257000   6.287000   -8.762000
O   -5.109000   8.262000   4.540000
H   -4.571000   8.384000   3.635000
H   -4.501000   7.839000   5.282000
O   7.666000   -1.693000   -5.603000
H   8.464000   -2.269000   -5.215000
H   6.959000   -1.832000   -4.891000
O   -9.796000   6.370000   -2.208000
H   -10.084000   7.266000   -1.994000
H   -10.446000   5.615000   -1.794000
O   10.701000   -4.950000   -3.035000
H   11.022000   -5.334000   -3.913000
H   11.551000   -4.785000   -2.471000
O   -6.306000   -6.431000   10.235000
H   -5.611000   -6.911000   9.673000
H   -7.245000   -6.885000   10.150000
O   8.409000   -6.684000   -1.618000
H   7.974000   -6.076000   -2.310000
H   9.435000   -6.669000   -1.703000
O   -5.407000   4.612000   3.738000
H   -4.487000   4.563000   3.316000
H   -6.011000   4.734000   2.909000
O   10.858000   -3.264000   3.071000
H   10.729000   -3.198000   2.056000
H   10.295000   -2.627000   3.602000
O   -4.430890   -1.262245   0.492885
H   -3.879811   -0.403771   0.695028
H   -5.395660   -1.014109   0.781494
O   -3.536000   -10.634000   8.308000
H   -3.604000   -11.632000   8.028000
H   -4.517000   -10.403000   8.153000
O   4.901000   -4.735000   5.393000
H   4.992000   -3.740000   5.600000
H   5.512000   -5.293000   5.971000
O   -3.462000   -10.465000   -10.414000
H   -2.801000   -10.319000   -9.686000
H   -4.467000   -10.134000   -10.193000
O   8.626000   3.518000   6.281000
H   8.249000   4.292000   5.693000
H   8.374000   3.808000   7.211000
O   12.417000   0.269000   2.856000
H   12.020000   -0.273000   2.018000
H   12.322000   1.249000   2.645000
O   7.236000   0.827000   -0.514000
H   8.278000   0.724000   -0.447000
H   6.918000   0.020000   0.078000
O   2.313000   -3.031000   -7.568000
H   3.219000   -3.391000   -7.786000
H   1.594000   -3.485000   -8.109000
O   2.816000   2.740000   -7.916000
H   2.892000   2.273000   -6.991000
H   3.774000   2.613000   -8.229000
O   -8.072000   -4.221000   7.054000
H   -7.309000   -4.144000   6.253000
H   -8.587000   -5.126000   6.778000
O   -3.457000   7.296000   6.470000
H   -3.218000   7.711000   7.368000
H   -4.018000   6.477000   6.750000
O   3.571000   -7.522000   7.086000
H   3.290000   -7.909000   6.194000
H   4.529000   -7.351000   7.062000
O   2.627000   15.637000   -2.685000
H   3.148000   14.776000   -2.463000
H   3.255000   16.201000   -3.302000
O   1.713000   -6.014000   8.605000
H   1.923000   -5.010000   8.546000
H   2.473000   -6.446000   8.017000
O   7.596000   -8.492000   6.227000
H   8.495000   -8.395000   5.749000
H   7.119000   -9.309000   5.817000
O   -6.540000   -3.208000   5.014000
H   -5.677000   -2.899000   4.498000
H   -7.328000   -2.824000   4.484000
O   -10.505000   0.663000   -5.016000
H   -10.522000   0.183000   -4.040000
H   -11.244000   0.286000   -5.565000
O   4.986000   -10.960000   7.072000
H   4.396000   -10.990000   6.246000
H   4.387000   -10.433000   7.769000
O   -1.946522   2.435672   3.025891
H   -0.951429   2.405861   3.295537
H   -2.439660   1.952508   3.806966
O   10.685000   3.734000   4.435000
H   10.175000   3.477000   5.286000
H   10.175000   3.288000   3.681000
O   -1.748000   -10.974000   -2.709000
H   -1.826000   -11.100000   -1.702000
H   -1.604000   -10.001000   -2.859000
O   6.207000   1.342000   -3.058000
H   6.930000   1.842000   -3.600000
H   6.535000   1.187000   -2.088000
O   -6.715000   -7.312000   3.833000
H   -6.412000   -7.119000   2.886000
H   -6.980000   -8.294000   4.011000
O   9.662000   -10.080000   -0.489000
H   9.729000   -10.760000   -1.245000
H   9.056000   -9.348000   -0.844000
O   -6.075000   -9.989000   -10.105000
H   -6.587000   -10.873000   -9.996000
H   -6.262000   -9.464000   -9.232000
O   6.277000   5.002000   -7.788000
H   5.978000   5.543000   -6.963000
H   6.100000   5.535000   -8.618000
O   4.825000   9.272000   -9.976000
H   4.210000   8.529000   -10.424000
H   4.368000   9.668000   -9.178000
O   -7.175000   3.957000   -3.583000
H   -6.169000   3.681000   -3.743000
H   -7.655000   4.345000   -4.461000
O   6.531000   9.359000   2.441000
H   6.487000   10.258000   1.945000
H   6.301000   8.614000   1.714000
O   -4.175000   0.353000   11.289000
H   -3.589000   -0.367000   11.737000
H   -4.462000   0.024000   10.367000
O   -0.728800   -5.960126   2.055794
H   -0.436974   -6.151460   3.028995
H   0.115962   -5.689626   1.526930
O   5.750000   1.146000   4.296000
H   6.737000   0.935000   4.639000
H   5.185000   1.586000   5.087000
O   3.714097   2.401760   -3.510537
H   3.189879   2.402607   -2.627245
H   4.671038   2.039249   -3.344069
O   2.986000   4.702000   10.517000
H   3.586000   5.370000   11.005000
H   2.781000   3.888000   11.103000
O   -0.619000   -4.282000   -9.863000
H   -1.647000   -4.226000   -9.691000
H   -0.189000   -4.458000   -8.987000
O   10.445000   -0.223000   -3.583000
H   10.176000   0.278000   -4.406000
H   10.077000   -1.153000   -3.484000
O   10.286000   -7.778000   5.433000
H   10.244000   -7.137000   4.625000
H   10.206000   -7.343000   6.356000
O   -3.276000   8.598000   -7.888000
H   -2.448000   8.760000   -7.261000
H   -2.993000   8.759000   -8.875000
O   5.245873   -1.865944   5.399188
H   5.836001   -1.323720   6.042846
H   5.593903   -1.681755   4.455459
O   -10.104000   2.543000   -0.390000
H   -9.966000   2.493000   -1.449000
H   -10.215000   1.631000   0.038000
O   3.535333   4.687279   -5.226738
H   2.895362   4.453821   -5.982011
H   3.651051   3.888996   -4.587601
O   -5.328000   -7.087000   -1.112000
H   -6.026000   -7.601000   -1.689000
H   -5.589000   -7.100000   -0.079000
O   0.646117   5.082972   3.660039
H   -0.183742   5.569426   4.012525
H   0.534238   4.067661   3.789523
O   -4.457000   8.328000   -11.413000
H   -5.391000   8.078000   -11.748000
H   -4.246000   7.663000   -10.636000
O   -13.204000   2.526000   -0.569000
H   -12.584000   3.342000   -0.504000
H   -14.173000   2.888000   -0.383000
O   -8.722000   7.450000   -4.547000
H   -9.401000   7.093000   -3.830000
H   -9.211000   8.284000   -4.967000
O   7.358000   4.942000   1.886000
H   7.405000   5.018000   2.925000
H   7.311000   3.918000   1.783000
O   11.075000   -1.911000   6.811000
H   10.893000   -1.821000   7.806000
H   12.040000   -2.302000   6.708000
O   -11.233000   -6.450000   -2.785000
H   -10.340000   -5.868000   -2.765000
H   -11.364000   -6.829000   -1.813000
O   -12.693000   0.552000   -2.470000
H   -12.700000   1.328000   -1.807000
H   -13.385000   0.721000   -3.198000
O   -4.515000   -6.853000   -12.376000
H   -5.216000   -6.564000   -11.603000
H   -4.014000   -6.017000   -12.659000
O   -7.444000   -9.324000   -1.322000
H   -7.993000   -8.876000   -0.565000
H   -7.941000   -8.992000   -2.238000
O   -3.308000   -4.330000   -9.826000
H   -3.749000   -3.959000   -10.661000
H   -3.401000   -5.372000   -9.817000
O   8.272000   -7.616000   0.894000
H   8.135000   -7.354000   -0.090000
H   7.707000   -8.419000   0.973000
O   -0.135000   0.602000   10.877000
H   -0.741000   1.403000   10.639000
H   -0.656000   -0.060000   11.471000
O   -0.332000   -0.089000   -8.085000
H   0.266000   -0.124000   -8.891000
H   -0.351000   0.881000   -7.787000
O   -0.613000   -7.369000   7.518000
H   0.318000   -7.163000   7.853000
H   -0.746000   -6.851000   6.658000
O   -10.156000   -2.548000   -0.312000
H   -10.680000   -3.271000   0.202000
H   -9.186000   -2.800000   -0.492000
O   7.027000   2.267000   1.821000
H   7.028000   1.697000   0.937000
H   6.303000   1.910000   2.477000
O   -3.548000   -4.340000   -12.852000
H   -3.966000   -3.585000   -13.445000
H   -2.582000   -4.108000   -12.636000
O   4.490000   12.284000   -7.777000
H   4.925000   11.337000   -7.645000
H   5.093000   13.135000   -7.700000
O   1.538000   9.047000   -8.724000
H   1.939000   8.554000   -9.546000
H   1.764000   10.040000   -8.785000
O   -7.269000   5.243000   -1.227000
H   -7.076000   4.590000   -2.034000
H   -7.910000   5.950000   -1.626000
O   5.365000   3.345000   9.203000
H   4.517000   3.861000   9.479000
H   6.211000   3.969000   9.135000
O   -5.997000   -2.883000   -4.481000
H   -5.679000   -2.399000   -5.328000
H   -6.905000   -2.425000   -4.228000
O   7.662000   -4.388000   0.434000
H   6.760000   -4.145000   0.842000
H   7.954000   -5.332000   0.413000
O   2.081000   -3.363000   8.257000
H   2.211000   -2.697000   7.459000
H   3.020000   -3.491000   8.727000
O   7.174000   8.564000   -5.574000
H   7.302000   9.109000   -4.728000
H   6.581000   7.750000   -5.568000
O   2.877000   7.599000   -10.608000
H   2.359000   7.885000   -11.438000
H   3.185000   6.663000   -10.866000
O   -3.961144   5.315184   -0.351060
H   -3.966397   5.602869   -1.347158
H   -4.611152   5.996172   0.076848
O   8.647000   4.828000   -6.746000
H   8.909000   5.767000   -6.410000
H   7.982000   4.801000   -7.490000
O   0.531000   -12.805000   -3.584000
H   0.444000   -13.856000   -3.756000
H   -0.314000   -12.486000   -3.041000
O   5.807000   -5.501000   3.079000
H   5.573000   -6.443000   2.738000
H   5.352000   -5.169000   3.897000
O   2.125000   2.705000   -11.939000
H   2.693000   2.826000   -12.773000
H   1.134000   3.044000   -12.039000
O   4.395000   -3.834000   9.742000
H   5.079000   -3.646000   8.923000
H   4.926000   -4.021000   10.637000
O   6.612000   2.705000   -9.224000
H   6.407000   3.439000   -8.560000
H   7.386000   3.021000   -9.865000
O   6.937000   -0.399000   7.237000
H   7.481000   0.135000   6.500000
H   6.849000   0.162000   8.057000
O   -4.408000   11.392000   -3.892000
H   -5.407000   11.355000   -4.240000
H   -4.480000   12.092000   -3.170000
O   -4.739844   2.915080   -3.620976
H   -4.601320   2.872189   -2.592665
H   -3.808642   2.978177   -4.065739
O   6.819000   -1.643000   -8.201000
H   6.964000   -1.662000   -7.151000
H   7.721000   -1.639000   -8.700000
O   -2.852000   -6.778000   8.928000
H   -1.894000   -7.011000   8.681000
H   -2.718000   -5.895000   9.416000
O   -3.575059   -5.416207   -2.175118
H   -4.229468   -6.112787   -1.755986
H   -3.971076   -4.500256   -1.900711
O   1.663000   2.248000   11.691000
H   1.481000   2.757000   12.555000
H   0.975000   1.507000   11.677000
O   3.026000   -9.245000   -6.066000
H   2.243000   -9.756000   -5.614000
H   3.718000   -8.837000   -5.385000
O   -5.837000   -9.878000   4.413000
H   -5.835000   -10.841000   4.814000
H   -5.035000   -9.701000   3.793000
O   -11.965000   4.369000   -3.624000
H   -12.145000   5.179000   -2.990000
H   -11.079000   4.035000   -3.329000
O   -6.556000   10.578000   4.709000
H   -5.885000   9.817000   4.902000
H   -7.234000   10.521000   5.482000
O   -0.393000   10.031000   4.637000
H   -0.240000   9.432000   3.804000
H   0.120000   10.946000   4.670000
O   -1.763000   3.807000   6.296000
H   -1.649000   4.518000   5.595000
H   -0.888000   3.384000   6.569000
O   -3.631000   -11.699000   -5.829000
H   -3.048000   -10.867000   -5.911000
H   -3.007000   -12.382000   -5.561000
O   -4.589000   0.140000   -9.403000
H   -3.840000   -0.447000   -9.085000
H   -5.276000   -0.512000   -9.901000
O   -8.758000   6.741000   2.375000
H   -8.229000   7.589000   2.127000
H   -8.121000   5.971000   2.463000
O   -2.095256   8.781892   -1.326495
H   -1.968702   8.150163   -0.510506
H   -1.195964   8.784052   -1.831535
O   5.776604   -1.472848   -3.393059
H   4.759500   -1.619042   -3.273128
H   5.943868   -0.455493   -3.365325
O   -8.044000   5.136000   6.417000
H   -7.961000   5.820000   5.611000
H   -8.881000   4.565000   6.255000
O   2.825000   0.150000   9.748000
H   2.655000   0.957000   10.382000
H   3.476000   -0.393000   10.281000
O   9.253000   0.640000   -6.040000
H   9.599000   0.795000   -6.986000
H   8.808000   -0.261000   -5.891000
O   6.048000   -6.408000   7.201000
H   6.300000   -6.242000   8.187000
H   6.781000   -6.974000   6.724000
O   -11.197000   5.785000   1.923000
H   -11.754000   6.688000   2.091000
H   -10.240000   6.079000   2.100000
O   4.547000   5.016000   5.845000
H   4.121000   4.886000   4.867000
H   4.102000   5.718000   6.457000
O   -3.221000   -12.593000   1.415000
H   -3.027000   -11.716000   0.837000
H   -2.925000   -12.240000   2.317000
O   -8.345000   4.925000   -5.835000
H   -9.036000   4.761000   -6.474000
H   -8.408000   5.927000   -5.644000
O   2.309000   9.096000   -4.619000
H   2.744000   8.708000   -5.446000
H   1.804000   9.958000   -4.843000
O   3.047567   -1.674120   -2.939948
H   2.756514   -0.911196   -2.309850
H   2.520104   -1.618549   -3.827935
O   12.093000   1.980000   -2.276000
H   13.002000   1.816000   -1.762000
H   11.822000   1.095000   -2.653000
O   0.498000   -1.992000   10.396000
H   0.489000   -0.997000   10.381000
H   0.853000   -2.370000   9.507000
O   10.722000   4.028000   -7.966000
H   9.998000   4.204000   -7.217000
H   11.621000   3.954000   -7.518000
O   -5.138000   -1.029000   6.813000
H   -5.762000   -1.398000   6.030000
H   -5.491000   -1.140000   7.756000
O   0.817000   -10.000000   0.227000
H   1.055000   -9.210000   0.810000
H   1.300000   -10.799000   0.710000
O   -0.002000   -8.748000   3.914000
H   1.029000   -8.988000   4.007000
H   -0.133000   -7.905000   4.480000
O   10.303000   -0.848000   4.459000
H   11.051000   -0.309000   4.018000
H   10.611000   -1.227000   5.367000
O   -10.619000   2.037000   3.847000
H   -10.993000   1.059000   3.994000
H   -11.474000   2.521000   3.642000
O   -6.833000   -0.675000   1.533000
H   -7.048000   0.152000   2.155000
H   -7.033000   -1.530000   2.020000
O   -7.440000   7.299000   5.099000
H   -6.474000   7.601000   4.639000
H   -8.056000   7.836000   4.528000
O   7.266000   5.347000   4.638000
H   6.369000   5.137000   5.118000
H   7.314000   6.370000   4.686000
O   1.589000   -6.165000   -13.162000
H   1.602000   -6.120000   -12.061000
H   0.693000   -5.921000   -13.490000
O   0.546000   -5.186000   -7.731000
H   -0.129000   -4.953000   -6.999000
H   1.188000   -5.892000   -7.320000
O   -1.020000   8.667000   -9.534000
H   -1.043000   8.339000   -10.521000
H   -0.081000   8.503000   -9.129000
O   0.764000   2.544000   6.919000
H   1.581000   1.909000   6.977000
H   0.912000   3.355000   7.560000
O   -1.071000   -9.999000   7.545000
H   -2.059000   -10.080000   7.884000
H   -0.897000   -9.041000   7.448000
O   0.823000   -10.240000   9.295000
H   0.430000   -9.822000   10.160000
H   0.059000   -10.125000   8.556000
O   -9.540000   -3.145000   -7.397000
H   -9.836000   -3.167000   -8.329000
H   -8.668000   -2.647000   -7.267000
O   -0.358000   -8.313000   -10.111000
H   -0.361000   -8.632000   -11.093000
H   0.464000   -7.704000   -9.951000
O   0.466000   11.108000   -5.567000
H   0.836000   12.080000   -5.774000
H   -0.326000   11.223000   -5.007000
O   8.729000   3.235000   -1.835000
H   7.912000   3.655000   -1.301000
H   8.597000   3.092000   -2.816000
O   -3.648000   8.701000   2.294000
H   -3.698000   8.160000   1.421000
H   -3.801000   9.655000   2.016000
O   -8.171000   -1.373000   -4.018000
H   -9.074000   -1.338000   -3.530000
H   -7.549000   -0.860000   -3.388000
O   7.218000   -3.523000   -2.148000
H   7.219000   -3.776000   -1.157000
H   6.547000   -2.782000   -2.388000
O   -9.039000   -2.219000   3.891000
H   -8.799000   -1.570000   4.661000
H   -9.947000   -2.653000   4.022000
O   2.585000   11.469000   -9.293000
H   3.251000   11.939000   -8.668000
H   2.509000   12.111000   -10.018000
O   -7.127000   11.105000   -4.254000
H   -7.913000   11.752000   -4.446000
H   -7.205000   10.405000   -3.464000
O   1.601000   -2.049000   12.962000
H   1.122000   -1.959000   12.141000
H   1.124000   -1.473000   13.707000
O   -1.445010   5.350715   -4.241678
H   -0.765639   5.839258   -4.855384
H   -1.367895   5.755249   -3.312647
O   -6.386000   -9.713000   8.662000
H   -5.812000   -8.926000   8.239000
H   -7.243000   -9.648000   8.093000
O   -11.522000   4.850000   -0.616000
H   -10.806000   4.135000   -0.518000
H   -11.735000   5.352000   0.222000
O   6.444000   -12.520000   1.368000
H   7.348000   -12.712000   0.946000
H   6.670000   -11.945000   2.188000
O   5.604000   8.720000   -0.283000
H   6.651000   8.723000   -0.371000
H   5.173000   9.663000   -0.386000
O   -1.265266   -6.898026   -2.189758
H   -2.055153   -6.231888   -2.146730
H   -0.971860   -6.938961   -3.183955
O   0.836000   -8.812000   -2.327000
H   0.927000   -9.284000   -1.437000
H   0.215000   -8.030000   -2.074000
O   -0.666000   -3.964000   11.784000
H   -0.126000   -3.261000   11.250000
H   -0.075000   -4.781000   11.896000
O   -6.029000   7.886000   -5.472000
H   -5.318000   8.163000   -4.828000
H   -6.980000   7.860000   -5.100000
O   -7.472000   0.523000   -6.249000
H   -7.174000   -0.407000   -6.525000
H   -8.496000   0.564000   -6.056000
O   -2.112000   8.125000   8.722000
H   -2.511000   8.161000   9.646000
H   -1.664000   9.016000   8.532000
O   -11.754000   -2.236000   -6.029000
H   -10.838000   -2.644000   -6.266000
H   -12.099000   -1.522000   -6.707000
O   -3.359701   -5.192201   2.383010
H   -3.597946   -5.426723   3.360397
H   -2.361281   -5.411051   2.221101
O   -2.943295   4.915854   2.202878
H   -2.522067   4.000770   2.442036
H   -3.282794   4.922843   1.227163
O   -4.423000   2.516000   -11.607000
H   -5.383000   2.669000   -11.371000
H   -4.119000   1.680000   -11.098000
O   4.950000   2.428000   6.728000
H   5.132000   2.558000   7.697000
H   4.841000   3.369000   6.406000
O   -2.742000   0.153000   -13.736000
H   -3.299000   1.026000   -13.686000
H   -1.858000   0.368000   -13.253000
O   -5.286000   11.841000   2.790000
H   -4.650000   12.483000   3.270000
H   -5.875000   11.444000   3.484000
O   -0.236000   -8.790000   11.325000
H   -1.082000   -8.210000   11.569000
H   0.473000   -8.138000   11.258000
O   -4.601000   -2.946000   12.126000
H   -4.446000   -2.592000   13.095000
H   -4.047000   -2.375000   11.499000
O   -8.213000   -0.046000   -9.675000
H   -8.087000   0.841000   -9.191000
H   -7.469000   -0.748000   -10.048000
O   -6.804000   -2.055000   -7.519000
H   -5.957000   -2.513000   -7.237000
H   -6.623000   -1.692000   -8.482000
O   4.796000   -1.348000   10.758000
H   4.556000   -2.159000   10.173000
H   5.475000   -0.695000   10.285000
O   3.842000   9.887000   9.180000
H   4.544000   9.155000   8.883000
H   2.936000   9.833000   8.619000
O   10.932000   4.409000   -0.724000
H   11.799000   3.904000   -0.487000
H   10.308000   3.637000   -1.084000
O   4.888000   -3.095000   -11.767000
H   4.367000   -3.596000   -12.462000
H   4.889000   -2.120000   -12.010000
O   -5.071000   -7.584000   7.587000
H   -4.174000   -7.083000   7.905000
H   -5.045000   -7.581000   6.559000
O   2.797611   -5.573977   3.094506
H   2.502466   -5.257363   4.030802
H   3.314877   -6.448421   3.178433
O   -3.435000   4.545000   -8.388000
H   -4.247000   4.947000   -7.952000
H   -3.494000   3.553000   -8.056000
O   9.163000   0.119000   9.819000
H   9.803000   0.931000   9.655000
H   8.195000   0.340000   9.618000
O   -7.204000   -0.583000   -1.340000
H   -6.745000   -0.008000   -1.999000
H   -7.360000   -0.313000   -0.367000
O   -0.451000   0.709000   -12.184000
H   -0.994000   0.965000   -11.372000
H   0.328000   0.012000   -11.862000
O   -4.523000   -5.675000   4.823000
H   -5.111000   -5.049000   5.356000
H   -5.150000   -6.393000   4.432000
O   9.762000   0.909000   -0.949000
H   9.348000   1.849000   -1.233000
H   10.022000   0.526000   -1.875000
O   -5.528000   5.916000   9.377000
H   -5.688000   5.233000   10.112000
H   -5.533000   5.438000   8.435000
O   8.350000   2.529000   -4.406000
H   8.888000   1.899000   -5.051000
H   8.410000   3.493000   -4.771000
O   2.836000   6.540000   7.262000
H   2.159000   5.943000   7.663000
H   2.498000   7.513000   7.285000
O   3.345000   -9.728000   8.540000
H   3.246000   -8.786000   8.105000
H   2.427000   -9.950000   9.046000
O   4.958000   -8.250000   -3.904000
H   5.115000   -9.121000   -3.311000
H   5.896000   -7.987000   -4.260000
O   5.030000   -7.944000   2.300000
H   4.409000   -8.069000   1.523000
H   5.082000   -8.826000   2.842000
O   2.355000   -5.202000   13.133000
H   2.239000   -4.198000   12.990000
H   3.296000   -5.284000   13.485000
O   -6.546000   -11.925000   -1.498000
H   -5.800000   -11.928000   -2.258000
H   -6.926000   -11.013000   -1.539000
O   2.204760   -4.915689   5.684846
H   3.241297   -4.917782   5.668930
H   1.900878   -4.456805   6.547175
O   -2.365000   -7.267000   11.865000
H   -3.192000   -7.347000   11.245000
H   -2.742000   -6.988000   12.766000
O   4.803000   -10.764000   3.644000
H   4.725000   -11.734000   3.949000
H   5.808000   -10.568000   3.734000
O   -2.046000   11.806000   -1.179000
H   -2.292000   10.833000   -1.060000
H   -2.746000   12.498000   -0.802000
O   -2.206243   2.780142   -4.503140
H   -1.956824   2.434525   -3.560557
H   -1.870063   3.763864   -4.551878
O   9.014000   11.519000   -0.116000
H   9.987000   11.691000   0.058000
H   8.869000   10.551000   -0.150000
O   -5.601000   -6.506000   1.510000
H   -4.570000   -6.190000   1.647000
H   -6.012000   -5.664000   1.151000
O   -2.996935   1.024505   5.082219
H   -2.362367   1.025854   5.895933
H   -3.892301   0.642437   5.377384
O   -2.769000   -7.004000   -10.190000
H   -3.185000   -7.189000   -11.155000
H   -1.858000   -7.370000   -10.107000
O   -0.829000   -13.115000   3.379000
H   -1.355000   -13.960000   3.691000
H   0.166000   -13.283000   3.280000
O   -8.035000   10.320000   -0.139000
H   -8.795000   10.960000   -0.115000
H   -8.099000   9.711000   -0.915000
O   -7.516000   -3.096000   -0.665000
H   -7.494000   -2.070000   -0.917000
H   -6.524000   -3.326000   -0.897000
O   4.265009   1.561778   0.408894
H   3.555240   1.025398   -0.121330
H   5.177211   1.284485   0.043870
O   3.410000   -7.499000   -1.860000
H   4.041000   -7.832000   -2.586000
H   2.480000   -7.905000   -2.211000
O   -3.989521   -4.772408   -4.917725
H   -4.805069   -4.159763   -4.766330
H   -3.820696   -5.259766   -4.027823
O   1.411000   9.173000   6.775000
H   1.003000   9.427000   7.696000
H   0.705000   9.460000   6.074000
O   -9.069000   -8.483000   -3.299000
H   -9.422000   -9.193000   -4.000000
H   -9.738000   -7.715000   -3.041000
O   9.034000   -5.449000   -6.089000
H   8.976000   -5.338000   -7.136000
H   9.957000   -5.749000   -5.870000
O   1.158000   -2.482000   -14.049000
H   0.808000   -2.587000   -13.083000
H   2.125000   -2.878000   -14.227000
O   -4.326000   6.213000   -2.889000
H   -4.538000   7.172000   -3.078000
H   -4.025000   5.825000   -3.732000
O   -7.330000   1.297000   3.305000
H   -8.003000   1.947000   2.902000
H   -6.691000   1.842000   3.913000
O   -4.854210   -3.076322   -1.542455
H   -4.601485   -2.355710   -0.840235
H   -5.078731   -2.648360   -2.445829
O   2.066000   -6.779000   -6.325000
H   2.722000   -6.213000   -5.790000
H   2.406000   -7.766000   -6.338000
O   -0.472874   -6.820290   -4.851992
H   0.426786   -6.986086   -5.321075
H   -0.846727   -5.926528   -5.206852
O   9.438000   -2.682000   -3.315000
H   10.010000   -3.522000   -3.221000
H   8.766000   -2.841000   -2.542000
O   6.558000   0.826000   9.659000
H   6.768000   0.994000   10.654000
H   6.406000   1.782000   9.285000
O   7.856000   8.413000   -8.714000
H   7.864000   8.323000   -7.705000
H   6.919000   8.676000   -9.128000
O   -1.675000   11.882000   -3.944000
H   -2.603000   11.404000   -3.993000
H   -1.394000   11.901000   -2.994000
O   -3.856000   5.154000   -11.078000
H   -3.807000   5.137000   -10.040000
H   -3.808000   4.215000   -11.413000
O   9.794000   -6.376000   2.746000
H   10.715000   -6.320000   2.430000
H   9.244000   -6.945000   2.044000
O   -11.443000   -4.467000   1.089000
H   -12.439000   -4.380000   0.811000
H   -11.188000   -5.341000   1.565000
O   0.893000   13.590000   -6.161000
H   1.038000   14.126000   -7.023000
H   0.034000   13.936000   -5.787000
O   -8.725000   -1.148000   6.458000
H   -8.366000   -2.115000   6.595000
H   -9.740000   -1.102000   6.703000
O   -6.571000   -11.105000   -4.979000
H   -6.292000   -11.745000   -5.750000
H   -5.782000   -11.015000   -4.384000
O   5.157403   -3.500975   1.141201
H   5.041948   -4.194724   1.892099
H   4.320448   -3.485360   0.537057
O   2.772000   -9.282000   4.914000
H   3.686000   -9.421000   4.526000
H   2.546000   -10.182000   5.451000
O   -1.233000   14.489000   -4.661000
H   -1.606000   13.592000   -4.338000
H   -2.142000   14.867000   -4.947000
O   -3.765000   2.015000   -7.530000
H   -4.414000   1.362000   -8.023000
H   -3.665000   1.826000   -6.573000
O   -3.248630   0.319583   -5.174483
H   -2.778121   1.203705   -4.926936
H   -4.117129   0.208469   -4.643538
O   2.722000   0.826000   7.276000
H   2.628000   0.483000   8.247000
H   3.688000   1.129000   7.105000
O   3.371285   1.853570   3.008946
H   3.551208   1.679682   2.006630
H   4.186491   1.460072   3.503555
O   1.311144   8.258406   -0.350152
H   2.196820   7.726372   -0.409397
H   0.960750   8.453482   -1.292929
O   -1.430793   -4.399287   -5.835893
H   -1.322180   -3.373619   -5.907441
H   -2.414020   -4.574438   -5.557892
O   5.477000   -6.895000   -11.074000
H   6.032000   -5.999000   -10.970000
H   4.478000   -6.627000   -11.084000
O   3.384000   4.949000   -10.496000
H   3.012000   4.160000   -11.019000
H   2.609000   5.220000   -9.874000
O   9.766000   2.543000   2.378000
H   10.140000   2.323000   1.474000
H   8.776000   2.430000   2.201000
O   1.629000   5.316000   -8.084000
H   0.593000   5.431000   -8.289000
H   1.945000   4.330000   -8.239000
O   2.636000   12.856000   3.394000
H   2.046000   13.678000   3.528000
H   2.800000   12.669000   2.423000
O   -3.631000   12.708000   5.430000
H   -3.395000   11.687000   5.675000
H   -4.386000   13.069000   6.050000
O   7.859000   -9.230000   -2.538000
H   7.777000   -8.254000   -2.193000
H   6.989000   -9.809000   -2.451000
O   9.854000   5.764000   -3.087000
H   8.847000   5.803000   -3.130000
H   10.191000   5.630000   -2.087000
O   -5.857000   -6.403000   -9.898000
H   -6.792000   -6.738000   -9.690000
H   -5.290000   -6.584000   -9.056000
O   -9.107000   -4.969000   -2.961000
H   -8.141000   -5.269000   -2.989000
H   -9.261000   -4.408000   -3.755000
O   10.990000   -0.962000   0.752000
H   10.460000   -0.468000   0.095000
H   10.887000   -1.999000   0.613000
O   0.078000   2.574000   -7.750000
H   -0.236000   2.639000   -6.789000
H   1.126000   2.504000   -7.752000
O   -8.240000   -9.882000   2.489000
H   -7.300000   -10.300000   2.443000
H   -8.875000   -10.661000   2.255000
O   -1.473479   -1.648493   -6.203197
H   -1.036824   -1.129558   -6.992868
H   -2.152647   -1.000638   -5.770540
O   -7.947000   1.111000   9.266000
H   -7.016000   1.258000   9.564000
H   -8.048000   1.397000   8.273000
O   5.567000   6.505000   -5.659000
H   6.000000   6.291000   -4.813000
H   4.666000   5.994000   -5.536000
O   3.839000   -5.307000   -4.824000
H   3.872000   -5.157000   -3.850000
H   4.452000   -4.717000   -5.284000
O   -2.388000   -3.206000   7.795000
H   -2.723000   -3.569000   8.672000
H   -2.569000   -2.216000   8.012000
O   -1.026000   11.299000   -9.294000
H   -1.076000   10.255000   -9.364000
H   -0.018000   11.545000   -9.366000
O   -5.060000   1.991000   8.081000
H   -5.575000   2.289000   7.196000
H   -5.184000   1.001000   8.093000
O   -9.693000   -5.907000   -6.993000
H   -10.603000   -6.168000   -6.572000
H   -9.662000   -4.880000   -7.058000
O   4.660000   -5.215000   -2.181000
H   4.340000   -6.173000   -1.915000
H   5.474000   -5.296000   -2.774000
O   -2.196000   10.862000   8.449000
H   -2.122000   11.923000   8.584000
H   -2.540000   10.677000   7.485000
O   -1.752000   -10.493000   3.018000
H   -1.357000   -11.431000   3.214000
H   -0.981000   -9.830000   3.269000
O   -2.943000   3.420000   8.768000
H   -2.618000   3.218000   7.832000
H   -3.905000   2.958000   8.808000
O   -4.415000   -11.741000   -3.073000
H   -3.494000   -11.253000   -3.121000
H   -4.361000   -12.724000   -3.509000
O   9.410000   6.986000   -5.528000
H   8.447000   7.510000   -5.434000
H   9.795000   6.753000   -4.572000
O   -7.205000   2.805000   -11.048000
H   -7.235000   2.605000   -10.016000
H   -8.155000   3.138000   -11.206000
O   -4.581000   -6.626000   -7.616000
H   -3.729000   -7.077000   -7.291000
H   -4.656000   -5.818000   -6.976000
O   0.469592   6.685970   -5.635157
H   0.722468   6.320686   -6.559876
H   1.336433   7.068688   -5.250669
O   6.483000   4.697000   -0.901000
H   5.639000   4.395000   -0.366000
H   6.986000   5.378000   -0.284000
O   -3.712000   -2.622000   -7.930000
H   -3.675000   -3.467000   -8.487000
H   -2.875000   -2.599000   -7.339000
O   -4.370000   8.790000   -2.995000
H   -3.616000   8.370000   -2.424000
H   -4.162000   9.771000   -3.130000
O   -3.563000   -8.475000   -3.534000
H   -3.339000   -7.823000   -2.747000
H   -4.475000   -8.804000   -3.633000
O   1.098000   4.641000   8.388000
H   0.157000   4.967000   8.549000
H   1.641000   4.903000   9.232000
O   6.565155   -1.117986   1.171531
H   5.953280   -1.945241   1.085969
H   7.126266   -1.284989   2.026495
O   -0.479000   4.182000   -11.721000
H   -0.896000   5.103000   -11.649000
H   -0.928000   3.478000   -11.104000
O   6.455000   6.404000   10.029000
H   5.951000   6.874000   9.247000
H   5.781000   6.400000   10.807000
O   2.382000   -11.469000   1.717000
H   2.906000   -10.989000   2.456000
H   2.479000   -12.473000   1.892000
O   9.509000   6.148000   0.894000
H   10.200000   5.488000   0.534000
H   8.741000   5.651000   1.320000
O   3.670000   13.313000   -5.158000
H   2.649000   13.342000   -5.296000
H   3.984000   12.899000   -6.045000
O   -8.408000   1.842000   6.727000
H   -8.321000   0.923000   6.298000
H   -9.269000   2.239000   6.393000
O   -7.846000   -9.891000   6.421000
H   -8.559000   -9.316000   5.963000
H   -6.979000   -9.870000   5.777000
O   4.893000   0.415000   -8.733000
H   5.417000   1.276000   -8.778000
H   5.561000   -0.281000   -8.353000
O   3.697000   -10.228000   -8.336000
H   3.294000   -10.005000   -7.402000
H   4.256000   -9.371000   -8.385000
O   -8.504000   -4.920000   1.118000
H   -9.433000   -4.885000   0.801000
H   -8.009000   -4.337000   0.458000
O   -7.369000   -4.295000   -10.577000
H   -6.855000   -5.007000   -10.046000
H   -7.559000   -4.560000   -11.541000
O   -6.179000   -9.036000   -7.653000
H   -6.023000   -9.574000   -6.812000
H   -5.802000   -8.151000   -7.594000
O   -0.209086   -1.611300   6.869678
H   0.685389   -1.881849   6.451292
H   -0.791641   -2.427492   7.095383
O   -3.537000   14.249000   -0.274000
H   -4.178000   13.948000   -0.960000
H   -3.951000   15.078000   0.059000
O   0.147017   8.810784   -2.943103
H   -0.497288   9.192175   -3.635939
H   1.076067   8.802388   -3.397415
O   1.657237   -1.397183   -5.403716
H   2.020843   -1.975381   -6.185147
H   0.640006   -1.416892   -5.502527
O   -1.776000   2.211000   -9.910000
H   -2.502000   1.758000   -9.368000
H   -1.218000   2.655000   -9.155000
O   -8.848000   -8.009000   0.778000
H   -8.591000   -8.595000   1.593000
H   -8.834000   -7.104000   1.249000
O   -6.012000   -10.811000   1.184000
H   -5.224000   -10.284000   1.546000
H   -6.103000   -10.663000   0.206000
O   -4.161000   3.274000   12.218000
H   -3.143000   3.163000   12.059000
H   -4.586000   2.382000   12.171000
O   -1.243000   9.057000   -6.155000
H   -0.752000   8.307000   -5.797000
H   -0.572000   9.857000   -6.383000
O   9.710000   -6.735000   7.818000
H   9.583000   -5.721000   7.983000
H   9.365000   -7.390000   8.479000
O   3.142024   -3.545475   -0.811156
H   3.729315   -4.239264   -1.319417
H   2.999850   -2.795656   -1.502916
O   -0.030560   -6.154344   4.767388
H   0.831086   -5.700541   5.116463
H   -0.848611   -5.615586   5.133172
O   -8.467000   -7.194000   -8.846000
H   -8.272000   -8.156000   -8.521000
H   -8.934000   -6.736000   -7.984000
