42
Converted from rst7
C   0.671383   3.595896   0.288311
H   -0.053258   4.407291   0.388934
H   1.593048   3.904966   0.783051
H   0.276025   2.706813   0.785935
C   1.519902   4.539988   -1.908954
H   1.563027   4.345089   -2.982991
H   0.902873   5.422057   -1.723088
H   2.525094   4.743021   -1.539063
C   0.942830   3.344789   -1.186942
O   1.864694   2.267492   -1.373865
O   -0.277130   3.010288   -1.864340
O   2.345053   0.158971   -0.981029
O   -1.940880   1.617082   -2.109878
C   1.443280   0.988541   -1.126130
C   -0.749284   1.776253   -1.680232
C   0.040302   0.762663   -1.134912
C   -0.633900   -0.528162   -0.689628
H   -1.437861   -0.252107   0.007865
C   -1.343208   -1.302285   -1.766998
O   -2.053060   -0.777106   -2.675047
C   -1.187034   -2.709684   -1.610250
H   -1.675991   -3.449020   -2.231050
C   -0.392920   -2.911200   -0.538773
H   -0.169974   -3.879128   -0.108056
C   0.178041   -1.655534   0.053875
H   1.220870   -1.595066   -0.276898
N   0.163325   -1.686761   1.491857
C   1.148295   -0.815199   2.129117
H   1.133907   0.202951   1.700893
H   0.851952   -0.704013   3.174839
C   2.555870   -1.399201   2.077201
H   3.241025   -0.801985   2.685993
H   2.953025   -1.417028   1.057925
H   2.546032   -2.420803   2.468886
C   -1.169472   -1.648267   2.097066
H   -1.554919   -0.616926   2.174929
H   -1.851945   -2.190934   1.430017
C   -1.209009   -2.311632   3.468120
H   -0.839984   -3.339368   3.408113
H   -0.603947   -1.769117   4.198891
H   -2.232002   -2.323117   3.852889
H   -2.094971   0.267093   -2.504921
