79
Iteration 20 Energy -272.42536432
O        8.2525810401    2.2227099946   11.6402102529
O        7.3812573344    5.1355529387   13.3892460417
O        9.3274226283    4.1760632379   13.0648326239
H        8.8938742060    3.4590859737   12.5728738947
O        5.1803214701   12.5707691278    8.2611045552
O        4.6210313412   10.6907271158   11.2032586047
O        3.4616614466   11.3367217793    9.4418412899
H        4.2194338917   11.8698023262    9.1331358011
N        6.4136538766    3.5770634808   11.2087979163
H        6.4440376666    4.1313128300   12.0626616035
N        5.2139774533    6.2971857627   11.8173262012
H        6.1198068110    5.9108330006   12.0619859845
N        6.9445224921    9.2245599482   11.7083778815
H        6.1375842054    9.4785900452   11.1462635932
N        6.7349504220   11.4110461628    9.5832707174
H        6.1911816868   11.3105579812   10.4403806450
C        8.4397048128    0.0891247892    9.5105932275
H        8.9493813575    0.3388824117   10.4374601871
H        8.8604015472   -0.7641657901    8.9861468726
C        7.3961067329    0.7422713954    9.0301945411
H        6.9233143118    0.4431741439    8.0907123181
C        6.7799091170    1.8836268376    9.6640897072
C        5.6824910708    2.5702107085    9.2496180475
C        5.4238791218    3.6934403773   10.1891571358
C        7.2798101330    2.5184785339   10.9338325457
C        4.8569670194    2.3027191375    8.0543030388
H        4.0228165211    3.0146806641    7.9585210682
H        5.4707161932    2.3729499968    7.1412894649
H        4.4330813075    1.2863755226    8.1039130186
C        4.4685019254    4.6347217114   10.0767267252
H        3.7277894515    4.5237036717    9.2767750672
C        4.2970709685    5.8060729271   10.8741638377
C        3.2188118218    6.7140498850   10.8434261360
C        3.4864875162    7.7651605246   11.7766483534
C        4.7176508826    7.4740233588   12.3652986114
C        2.0016189802    6.5755826539   10.0249028063
H        2.0201639143    5.6574611281    9.4177445448
H        1.1100399044    6.5378331453   10.6712889586
H        1.8921107285    7.4299182719    9.3359793756
C        2.6080957487    8.9068131718   12.1227305649
H        1.6376557899    8.5197082634   12.4934097974
H        3.0557131295    9.4986519570   12.9441843524
C        2.3300709382    9.8296363421   10.9227851771
H        2.0102127460    9.2532191823   10.0317111757
H        1.5191297712   10.5418426021   11.1692393645
C        3.5717913177   10.6310964898   10.5674198038
C        5.5122918174    8.1638209479   13.4272309598
H        5.0027790167    9.0954986280   13.7441555837
H        5.5989782223    7.5119318589   14.3195113167
C        6.8681591880    8.4901154173   12.8857659580
C        8.1629719254    8.2337680119   13.3503697970
C        9.0599913295    8.8689461148   12.4346579312
C        8.2933304831    9.4745584547   11.4175400024
C        8.5239206678    7.4876482251   14.5808594097
H        9.0976967205    8.1529336367   15.2572777006
H        7.6127013926    7.1778773421   15.1272027159
C        9.3956197136    6.2488091537   14.2825248119
H       10.2758237361    6.5185627082   13.6665445196
H        9.7680104815    5.8086244403   15.2276876942
C        8.5974822941    5.1787800114   13.5549627168
C       10.5314536278    8.9345276114   12.5186942356
H       10.9100624899    8.4701508596   13.4423965687
H       10.9938975632    8.4183971410   11.6620944126
H       10.8725485940    9.9819767195   12.5136607493
C        8.7816050822   10.1724100103   10.2730499016
H        9.8469518742   10.0013891410   10.0806458614
C        8.0879303440   10.9590357133    9.4301291763
C        8.5383664771   11.5153967655    8.1278766175
C        7.5013074179   12.1671785296    7.5378621917
C        6.3123062614   12.1073718463    8.4559971688
C        9.8462877628   11.3733344343    7.5135336178
H        9.8891690559   11.7425999625    6.4819796246
C       10.9355246233   10.8774999185    8.0673741532
H       10.9977354495   10.5009853377    9.0853060531
H       11.8746784583   10.8173788119    7.5238165971
C        7.4293850210   12.8554472342    6.2388051229
H        6.4250677573   13.2730328819    6.0656024089
H        8.1549959242   13.6836713225    6.1982426355
H        7.6559262963   12.1568350586    5.4171281984
