79
-1.2515729087129785e+02 frame 27   xyz file generated by TeraChem
     C     1.9971039274   -0.2116852212    0.9431924852
     H     1.7974826064   -0.7091828549    1.9007275503
     H     3.0432010898    0.0905147348    0.9660534237
     C     1.8238906615   -1.2067135480   -0.1540076101
     N     0.8124366316   -1.1531616985   -1.0512218212
     H     0.1163029254   -0.4286440952   -1.1103987176
     C     0.8611224128   -2.2451749732   -1.8867976404
     C     1.9942359974   -2.9903545423   -1.5237156351
     C     2.4673971647   -4.2524591328   -2.1574363530
     H     2.0415892888   -4.3684635393   -3.1499066735
     H     3.5517383733   -4.2478642322   -2.2462016009
     H     2.1828570318   -5.1175240143   -1.5562704802
     C     2.5610276794   -2.3600655845   -0.3993939416
     C     3.7020747918   -2.8861405885    0.4154905493
     H     3.7976370829   -3.9526574843    0.2136467452
     H     3.4812309868   -2.7630009278    1.4785360565
     C     5.0502215095   -2.2000386767    0.1342216293
     H     5.1148034630   -1.8362381473   -0.8909349152
     H     5.8633762484   -2.9125833073    0.2919783126
     C     5.3133388919   -1.0503482717    1.0772317814
     O     6.0098651935   -0.0815067222    0.5188079151
     H     6.1196087843    0.6904929839    1.1344761147
     O     4.9313444687   -1.0154689531    2.2288253793
     C    -0.1509435761   -2.5420713850   -2.8131918171
     H    -0.1205400228   -3.5853918266   -3.1297656479
     C    -1.4378935034   -1.9983421103   -2.8306769827
     N    -2.5506574047   -2.6507563611   -2.3321062205
     H    -2.6264923331   -3.6482778567   -2.2110057814
     C    -3.5990952026   -1.7812028052   -2.0990554406
     O    -4.6558737737   -2.1360556470   -1.6046149215
     C    -3.0933652126   -0.4569419498   -2.4745342205
     C    -3.8933753098    0.7331413853   -2.5829524497
     H    -3.4308368882    1.5539303636   -3.1192215023
     C    -5.0907672773    0.8898629986   -2.0195138729
     H    -5.6506430686    1.8034328314   -2.1194338291
     H    -5.5642927784    0.0880514919   -1.4830903105
     C    -1.7765558482   -0.6095175407   -2.8605474265
     C    -0.8675858408    0.4604348850   -3.3719271113
     H     0.1272912390    0.0624182031   -3.5566317676
     H    -1.2510604403    0.8643788561   -4.3092385471
     H    -0.8009819821    1.2861429918   -2.6633399203
     C     1.1594818557    1.0196232719    0.8653060465
     N    -0.1944771781    0.9703054133    1.0017801071
     H    -0.7511277454    0.1295925512    1.0605531016
     C    -0.7025435814    2.2342114245    1.1609771814
     C     0.3763110964    3.1195694333    1.0879165359
     C     0.2930054534    4.6047258282    1.1956006946
     H    -0.1974234314    4.8934602085    2.1241552894
     H    -0.2839989405    5.0203821603    0.3686905508
     H     1.2834491714    5.0487838222    1.1785423528
     C     1.5397562614    2.3525080436    0.8627306918
     C     2.9278941332    2.8914058912    0.7420248049
     H     2.9005783893    3.7758276689    0.1015954178
     H     3.5743821019    2.1647694492    0.2476557092
     C     3.5436053012    3.3018306902    2.1078829931
     H     2.7608371614    3.4703058915    2.8434208155
     H     4.1617811198    4.1900401017    1.9926831961
     C     4.4146501050    2.1451523260    2.5118035560
     O     3.7973895776    1.2389622218    3.2434512804
     H     4.3091768737    0.3943089850    3.2633670858
     O     5.5523454026    2.0026284428    2.1086223181
     C    -2.0784203434    2.5872097486    1.2240785888
     H    -2.2463702217    3.6487400531    1.0866406217
     C    -3.2037077374    1.8320866599    1.3305802399
     N    -4.4452246453    2.3764523569    1.0305100228
     H    -4.5954492581    3.3474715095    0.8117232715
     C    -5.4433005632    1.4315313727    1.0176875799
     O    -6.6165966843    1.6594075902    0.8074389552
     C    -4.7719436066    0.1586493218    1.3392084342
     C    -5.5318450984   -1.1081105170    1.4296516191
     H    -5.1247182240   -1.7609669556    2.2003100326
     H    -6.5768743501   -0.8858188868    1.6346527940
     H    -5.4821434068   -1.6331955007    0.4732073857
     C    -3.4516327649    0.4131027871    1.5616526155
     C    -2.4699157903   -0.5388552802    2.0564487874
     H    -1.8173525933   -0.1604688107    2.8375412058
     C    -2.4044732374   -1.8146911559    1.6883471851
     H    -3.0363172190   -2.2092884606    0.9125124946
     H    -1.6938395321   -2.4945537889    2.1289616860
