42
-1.0148447493427398e+03 frame 5530   xyz file generated by TeraChem
     C    -0.7503127409    3.7454945415   -1.9140997287
     H    -0.6107064736    4.1047038104   -2.9365639530
     H    -1.1134693498    4.5654395774   -1.2892275323
     H    -1.5052471960    2.9538183715   -1.9190076191
     C     1.6738957746    4.2689541026   -1.3706733526
     H     2.5946447664    3.8273327726   -0.9828498366
     H     1.8423713181    4.6141562073   -2.3936478691
     H     1.3941743878    5.1185692036   -0.7434874327
     C     0.5694544034    3.2353143227   -1.3488943745
     O     0.3969405403    2.8449326758   -0.0006503590
     O     1.0353486328    2.1378509315   -2.1454239534
     O    -0.8254046088    1.5548557372    1.3226767288
     O     0.6256433747    0.1630896829   -2.9783483043
     C    -0.2845304658    1.6836025494    0.2478975820
     C     0.4401540396    0.9598544722   -1.9406222540
     C    -0.2268218693    0.6593901433   -0.7889982210
     C    -0.7931893759   -0.6809913316   -0.4192195901
     H    -1.6282467526   -0.4923725486    0.2700102750
     C    -1.3703929813   -1.5661256881   -1.5092691609
     O    -1.6608957822   -1.2220891200   -2.6492230353
     C    -1.3930413137   -2.9435310776   -0.9939804197
     H    -1.9305675232   -3.7516187427   -1.4754306967
     C    -0.5339908113   -3.0203203382    0.0286824954
     H    -0.2783793398   -3.9155365109    0.5874836547
     C     0.1418436464   -1.7052550581    0.3386160794
     H     1.1001736086   -1.7072636582   -0.1929525669
     N     0.4249753102   -1.5627158991    1.7395848603
     C     1.4692415870   -0.6150625079    2.1295602880
     H     1.1058056356    0.4224778505    2.1077406345
     H     1.7091065637   -0.8324552093    3.1766693797
     C     2.7522574359   -0.7420673814    1.3171055514
     H     3.5448607244   -0.1563117587    1.7928310960
     H     2.6436000779   -0.3606405480    0.2959899953
     H     3.0831022603   -1.7854576631    1.2694781176
     C    -0.7408702525   -1.5108708348    2.6189667237
     H    -1.0107999511   -0.4695873113    2.8507143663
     H    -1.5976050929   -1.9397583063    2.0830805054
     C    -0.5241113168   -2.3161718855    3.8976282867
     H    -0.3159065636   -3.3633521596    3.6546182224
     H     0.3211749067   -1.9333896103    4.4785751670
     H    -1.4108907066   -2.2737594633    4.5389649707
     H    -0.1542839192   -0.4355672935   -3.0426568467
