42
-1.0148533193177147e+03 frame 187   xyz file generated by TeraChem
     C     1.3147677307    3.3844792490    0.3844121334
     H     0.7739393900    4.3135705589    0.5815188079
     H     2.3168404614    3.4509259889    0.8154843362
     H     0.7854216840    2.5584461281    0.8650910275
     C     2.1272102565    4.3073171066   -1.8308722135
     H     2.1692775548    4.0954615921   -2.9015896898
     H     1.5787873900    5.2382511645   -1.6676804828
     H     3.1445766163    4.4118582047   -1.4468171945
     C     1.4359237356    3.1642391880   -1.1193519965
     O     2.1785357683    1.9974970707   -1.4069346649
     O     0.1282316712    3.0678652833   -1.7069521132
     O     2.3359280705   -0.1864600964   -1.1370919962
     O    -1.7700828081    1.9943906441   -1.8242733998
     C     1.5982832418    0.7748024123   -1.1792221240
     C    -0.4915136436    1.9045095315   -1.5265266356
     C     0.1474808339    0.7746105729   -1.0864342585
     C    -0.6715000296   -0.4394675128   -0.6809081701
     H    -1.4720265798   -0.0816385349   -0.0145631421
     C    -1.4056231412   -1.1085597732   -1.8439991282
     O    -2.0709914573   -0.5026226672   -2.6760210862
     C    -1.2265582367   -2.5592092842   -1.7491484284
     H    -1.6755822049   -3.2567181086   -2.4459640269
     C    -0.4679519984   -2.8362479205   -0.6810294828
     H    -0.1980729046   -3.8299136945   -0.3340748931
     C     0.0458497031   -1.6211844739    0.0452221459
     H     1.1174994284   -1.5596951594   -0.1617695191
     N    -0.1225544589   -1.7354185107    1.4850952160
     C     0.6321859379   -0.7252358435    2.2255992367
     H     0.3960041342    0.2924337402    1.8573452821
     H     0.2843647848   -0.7559089859    3.2631053970
     C     2.1393593340   -0.9520799562    2.2082117137
     H     2.6332686519   -0.2206996554    2.8570553653
     H     2.5670009134   -0.8427402272    1.2074422820
     H     2.3730961963   -1.9550549333    2.5791260738
     C    -1.5136300603   -1.8165152121    1.9259463746
     H    -1.9577128594   -0.8134167128    2.0690373578
     H    -2.0952020367   -2.2993480875    1.1316954656
     C    -1.6703125194   -2.6362442887    3.2030329180
     H    -1.2823900727   -3.6481075935    3.0519987959
     H    -1.1278881499   -2.1927689690    4.0446593133
     H    -2.7251213227   -2.7018206178    3.4905580205
     H    -2.0700179312    1.1040211651   -2.1587535610
42
-1.0148375885362998e+03 frame 42   xyz file generated by TeraChem
     C    -0.3475645210    3.4169887093   -3.3536661853
     H    -0.3501854438    3.4445704106   -4.4463148192
     H    -0.6561986496    4.3919030307   -2.9680468090
     H    -1.0724502529    2.6671542745   -3.0235759173
     C     2.0930312449    4.0962568639   -3.2974048239
     H     3.0709135910    3.8036656919   -2.9085468030
     H     2.1350715523    4.1272869065   -4.3887999358
     H     1.8345480358    5.0867438112   -2.9153357197
     C     1.0538841842    3.0886017612   -2.8527744146
     O     1.0837373271    3.0862035799   -1.4313840965
     O     1.4809318331    1.8304611103   -3.3722002283
     O     0.2791943499    2.1592377109    0.4064631029
     O     1.0796857938   -0.3245399084   -3.5118902634
     C     0.5095916489    2.0421163869   -0.7767204610
     C     0.9351613353    0.7010742801   -2.8669261505
     C     0.2852668467    0.8178785409   -1.5667634077
     C    -0.3947516658   -0.1959989878   -0.9200919587
     H    -0.7220369500    0.0891714877    0.0757544184
     C    -0.8123623191   -1.4965370972   -1.3181706088
     O    -0.8381966350   -1.9088952043   -2.6092617334
     C    -1.3390802403   -2.3612003915   -0.3753715965
     H    -1.8494778774   -3.2314067176   -0.7866184494
     C    -1.2600520791   -2.2490101162    1.0393113624
     H    -2.0162456624   -2.7628561305    1.6261351598
     C    -0.2127419189   -1.6076307132    1.6624162381
     H     0.6437828439   -1.3390646599    1.0531155691
     N    -0.1013273355   -1.2823665886    2.9616841939
     C     1.1600309140   -0.8068307503    3.5361750795
     H     0.8890546491   -0.1058357223    4.3335835189
     H     1.6902426222   -1.6437456110    4.0138043759
     C     2.0773762583   -0.0927290922    2.5506628223
     H     2.9022635737    0.3632294285    3.1061074355
     H     1.5452503277    0.7003789221    2.0147268826
     H     2.5231031939   -0.7762778023    1.8210803779
     C    -1.1860299681   -1.5628766865    3.8900466384
     H    -1.1375335638   -0.8166290353    4.6907880485
     H    -2.1307354771   -1.3977619111    3.3606977811
     C    -1.1331781989   -2.9734664773    4.4764238829
     H    -1.1774546845   -3.7307216860    3.6873677054
     H    -0.2088352058   -3.1308419182    5.0420312516
     H    -1.9752793073   -3.1367207951    5.1565534228
     H    -0.1415404672   -1.4215038373   -3.1034681436
