42
Converged     Job 7: Energy -1.0148247156157004e+03 @ (2.260000)
   C      -0.5698254781    3.5385798257   -2.4492417094
   H      -0.3305510145    3.7842903889   -3.4872402922
   H      -1.0178049083    4.4117627539   -1.9677866671
   H      -1.2989387998    2.7237865380   -2.4401352933
   C       1.7480087566    4.2408204136   -1.6964717049
   H       2.6309200895    3.8927445606   -1.1554289781
   H       2.0347372739    4.4976139940   -2.7193439169
   H       1.3477399451    5.1281743711   -1.1999491404
   C       0.7038537516    3.1436879410   -1.7097234360
   O       0.4166510622    2.8533605145   -0.3487342000
   O       1.3148455655    2.0297067698   -2.3554813698
   O      -0.6952523524    1.5469700484    1.0472688527
   O       1.0292365876   -0.0459235838   -3.0375824915
   C      -0.1995917211    1.6710287027   -0.0590101787
   C       0.7303957294    0.8125082048   -2.2096575514
   C      -0.1327448401    0.6353938829   -1.0765991276
   C      -0.7615576590   -0.5893364037   -0.7452686726
   H      -1.3868231035   -0.4927004739    0.1329355819
   C      -0.9656411039   -1.7704151820   -1.4984350958
   O      -0.8167455832   -1.8815204571   -2.8224221390
   C      -1.3263449450   -2.9041508198   -0.7397944164
   H      -1.8316810437   -3.7497175468   -1.1968884503
   C      -0.9337878370   -2.8663908421    0.5807472471
   H      -1.3718662554   -3.4924432794    1.3538244836
   C       0.0738999840   -1.9077742759    0.8891553991
   H       0.9092228191   -1.8328358674    0.2057042128
   N       0.2488888654   -1.3260303264    2.0758806514
   C       1.3982123182   -0.4656766799    2.3814661270
   H       1.0186588218    0.5616348653    2.4420017295
   H       1.7636929383   -0.7520520010    3.3751950259
   C       2.5398362633   -0.5270127173    1.3797379690
   H       3.3444404881    0.1241318348    1.7328679999
   H       2.2373550968   -0.1597734424    0.3935170288
   H       2.9476699319   -1.5383904254    1.2780336999
   C      -0.8543877695   -1.2361851518    3.0279297058
   H      -0.8745976628   -0.2099749728    3.4100287525
   H      -1.7893970379   -1.3833387943    2.4761701469
   C      -0.7413822608   -2.2432835309    4.1690405847
   H      -0.7585818159   -3.2717074303    3.7940651957
   H       0.1902640856   -2.1053023063    4.7275801625
   H      -1.5731680938   -2.1177943068    4.8693107839
   H      -0.1889879675   -1.1689482463   -3.1156919067
