42
-1.0148375885362998e+03 frame 42   xyz file generated by TeraChem
     C    -0.3475645210    3.4169887093   -3.3536661853
     H    -0.3501854438    3.4445704106   -4.4463148192
     H    -0.6561986496    4.3919030307   -2.9680468090
     H    -1.0724502529    2.6671542745   -3.0235759173
     C     2.0930312449    4.0962568639   -3.2974048239
     H     3.0709135910    3.8036656919   -2.9085468030
     H     2.1350715523    4.1272869065   -4.3887999358
     H     1.8345480358    5.0867438112   -2.9153357197
     C     1.0538841842    3.0886017612   -2.8527744146
     O     1.0837373271    3.0862035799   -1.4313840965
     O     1.4809318331    1.8304611103   -3.3722002283
     O     0.2791943499    2.1592377109    0.4064631029
     O     1.0796857938   -0.3245399084   -3.5118902634
     C     0.5095916489    2.0421163869   -0.7767204610
     C     0.9351613353    0.7010742801   -2.8669261505
     C     0.2852668467    0.8178785409   -1.5667634077
     C    -0.3947516658   -0.1959989878   -0.9200919587
     H    -0.7220369500    0.0891714877    0.0757544184
     C    -0.8123623191   -1.4965370972   -1.3181706088
     O    -0.8381966350   -1.9088952043   -2.6092617334
     C    -1.3390802403   -2.3612003915   -0.3753715965
     H    -1.8494778774   -3.2314067176   -0.7866184494
     C    -1.2600520791   -2.2490101162    1.0393113624
     H    -2.0162456624   -2.7628561305    1.6261351598
     C    -0.2127419189   -1.6076307132    1.6624162381
     H     0.6437828439   -1.3390646599    1.0531155691
     N    -0.1013273355   -1.2823665886    2.9616841939
     C     1.1600309140   -0.8068307503    3.5361750795
     H     0.8890546491   -0.1058357223    4.3335835189
     H     1.6902426222   -1.6437456110    4.0138043759
     C     2.0773762583   -0.0927290922    2.5506628223
     H     2.9022635737    0.3632294285    3.1061074355
     H     1.5452503277    0.7003789221    2.0147268826
     H     2.5231031939   -0.7762778023    1.8210803779
     C    -1.1860299681   -1.5628766865    3.8900466384
     H    -1.1375335638   -0.8166290353    4.6907880485
     H    -2.1307354771   -1.3977619111    3.3606977811
     C    -1.1331781989   -2.9734664773    4.4764238829
     H    -1.1774546845   -3.7307216860    3.6873677054
     H    -0.2088352058   -3.1308419182    5.0420312516
     H    -1.9752793073   -3.1367207951    5.1565534228
     H    -0.1415404672   -1.4215038373   -3.1034681436
