1212
Converted from rst7
C   1.716602   3.652030   -2.179254
H   2.411595   4.293841   -1.630889
H   1.689599   3.983774   -3.220830
H   2.056318   2.611760   -2.141024
C   -0.202178   5.180745   -1.564863
H   -1.207455   5.206272   -1.139465
H   0.437315   5.821955   -0.955204
H   -0.225482   5.573101   -2.585161
C   0.333986   3.764906   -1.558481
O   -0.584379   2.959730   -2.300983
O   0.383880   3.345035   -0.209581
O   -1.034947   0.941941   -3.057537
O   0.754497   1.771420   1.243961
C   -0.576730   1.581333   -2.096593
C   0.344788   2.019754   0.103661
C   -0.142656   1.078979   -0.854674
C   -0.378281   -0.349900   -0.505489
H   0.385268   0.349604   1.792144
C   -1.278783   -1.220033   -1.056828
O   -2.230270   -1.054834   -1.975492
C   -1.108784   -2.578699   -0.516323
H   -1.721413   -3.415254   -0.830557
C   -0.119508   -2.580068   0.372750
H   0.216438   -3.411575   0.970929
C   0.425534   -1.178738   0.502846
H   1.502802   -1.126604   0.298206
N   0.281726   -0.688592   1.932044
C   1.436946   -1.028898   2.823782
H   2.248430   -0.375811   2.496848
H   1.141649   -0.711964   3.827596
C   1.920564   -2.470050   2.819786
H   2.749769   -2.549801   3.527735
H   2.297340   -2.767042   1.838233
H   1.155802   -3.182510   3.134000
C   -1.080387   -0.857790   2.552482
H   -1.191455   -0.005372   3.226968
H   -1.795577   -0.731199   1.738423
C   -1.334993   -2.143513   3.318633
H   -1.327009   -3.026201   2.676906
H   -0.632733   -2.287832   4.142178
H   -2.328041   -2.064743   3.766387
H   -1.987446   -0.258687   -2.505923
O   -3.181421   1.239322   0.768666
H   -2.717261   1.741426   1.540730
H   -3.233069   1.852815   -0.057890
O   7.438000   -10.673000   3.954000
H   7.802000   -11.399000   4.537000
H   8.255000   -10.299000   3.467000
O   -1.236000   6.703000   -11.392000
H   -0.919000   7.130000   -12.294000
H   -2.223000   6.273000   -11.517000
O   -10.467000   0.051000   0.978000
H   -10.188000   -0.762000   0.415000
H   -10.439000   -0.287000   1.938000
O   2.012000   -7.146000   11.061000
H   2.030000   -6.438000   11.830000
H   2.072000   -6.594000   10.151000
O   2.586343   1.283546   -5.701810
H   3.116966   1.641080   -4.892354
H   2.314745   0.298721   -5.572587
O   9.235000   -4.068000   9.901000
H   8.421000   -3.926000   9.325000
H   10.003000   -3.400000   9.606000
O   3.736000   -5.822000   -9.036000
H   3.631000   -6.415000   -8.249000
H   4.290000   -4.965000   -8.840000
O   -5.513000   13.468000   -2.311000
H   -5.816000   12.708000   -1.670000
H   -6.282000   14.049000   -2.525000
O   8.666000   -3.456000   6.574000
H   9.221000   -2.621000   6.510000
H   8.630000   -3.787000   5.618000
O   5.958000   6.116000   -10.453000
H   6.739000   6.040000   -11.131000
H   5.133000   5.529000   -10.618000
O   -1.238000   -9.924000   -8.381000
H   -0.887000   -9.096000   -8.889000
H   -1.764000   -9.629000   -7.539000
O   5.165000   9.617000   -7.295000
H   5.803000   9.688000   -6.518000
H   4.508000   8.782000   -7.059000
O   11.793000   4.196000   -4.089000
H   11.036000   4.837000   -3.818000
H   11.820000   3.453000   -3.387000
O   -3.213481   3.028946   -1.334629
H   -2.258905   3.150393   -1.695272
H   -3.517913   3.905180   -0.865793
O   -5.819000   7.218000   0.188000
H   -6.507000   6.727000   -0.402000
H   -6.329000   7.751000   0.849000
O   6.846000   6.241000   -3.260000
H   6.719000   5.592000   -2.467000
H   6.345000   7.026000   -2.862000
O   -5.669000   11.704000   -0.308000
H   -6.447000   11.091000   -0.427000
H   -5.757000   12.093000   0.616000
O   0.970000   -2.345000   -11.175000
H   0.333000   -2.980000   -10.685000
H   1.513000   -1.777000   -10.546000
O   -13.168000   0.261000   1.127000
H   -13.241000   1.039000   0.458000
H   -12.227000   -0.093000   1.017000
O   -1.194000   14.501000   0.862000
H   -2.160000   14.232000   0.518000
H   -0.972000   15.346000   0.411000
O   -9.088000   -5.830000   4.317000
H   -8.804000   -5.000000   3.788000
H   -8.280000   -6.487000   4.266000
O   -7.388000   8.905000   -2.459000
H   -7.858000   8.109000   -2.949000
H   -6.444000   8.705000   -2.152000
O   3.434000   10.889000   5.201000
H   3.088000   11.503000   4.449000
H   2.742000   10.402000   5.750000
O   7.216000   10.068000   -3.256000
H   6.392000   9.661000   -2.858000
H   8.037000   9.997000   -2.654000
O   0.617020   2.394040   4.139639
H   1.520027   2.128333   3.722797
H   0.688300   2.400977   5.168630
O   -7.262000   -3.879000   9.616000
H   -6.919000   -4.819000   9.912000
H   -7.536000   -3.968000   8.639000
O   1.000000   -10.119000   -4.603000
H   0.824000   -11.057000   -4.148000
H   0.884000   -9.412000   -3.852000
O   -2.030000   5.937000   4.689000
H   -2.539000   5.932000   3.821000
H   -2.451000   6.633000   5.277000
O   -11.073000   -8.165000   -0.725000
H   -11.265000   -9.145000   -0.476000
H   -10.291000   -7.964000   -0.085000
O   -7.193000   9.101000   2.245000
H   -6.940000   9.669000   3.048000
H   -7.388000   9.619000   1.375000
O   4.222000   -11.740000   -0.384000
H   3.439000   -11.292000   0.152000
H   5.122000   -11.869000   0.114000
O   5.556000   -10.740000   -2.549000
H   5.322000   -10.975000   -1.619000
H   5.146000   -11.451000   -3.164000
O   -7.563000   2.509000   -8.214000
H   -7.414000   1.997000   -7.314000
H   -7.422000   3.567000   -8.080000
O   -0.208000   11.737000   0.908000
H   -0.805000   11.569000   0.100000
H   -0.568000   12.632000   1.252000
O   7.213000   -8.085000   -5.315000
H   7.804000   -8.571000   -6.025000
H   7.228000   -7.086000   -5.458000
O   -6.099853   0.560849   -3.757261
H   -5.642288   1.479752   -3.646286
H   -6.643217   0.574747   -4.635835
O   -9.412000   -3.022000   10.954000
H   -9.936000   -2.221000   10.561000
H   -8.755000   -3.442000   10.252000
O   -6.277000   -1.503000   -10.569000
H   -5.930000   -1.383000   -11.586000
H   -6.672000   -2.443000   -10.466000
O   2.830231   -7.912019   0.691371
H   3.112502   -7.868236   -0.304626
H   2.255604   -7.065858   0.823620
O   4.219000   -2.302000   13.426000
H   3.177000   -2.316000   13.329000
H   4.580000   -1.990000   12.530000
O   -5.562000   -5.583000   12.861000
H   -5.815000   -5.914000   11.892000
H   -5.267000   -4.596000   12.729000
O   8.309000   8.161000   -0.479000
H   8.785000   7.421000   0.069000
H   9.039000   8.444000   -1.206000
O   -6.243000   -8.425000   -4.316000
H   -7.147000   -8.199000   -3.889000
H   -6.332000   -9.396000   -4.642000
O   -5.277000   6.794000   -7.930000
H   -4.521000   7.467000   -8.012000
H   -5.656000   7.063000   -7.006000
O   -5.137000   5.056000   6.953000
H   -4.576000   4.435000   6.340000
H   -6.110000   5.045000   6.796000
O   10.510000   -3.674000   0.559000
H   11.264000   -4.385000   0.269000
H   9.508000   -3.902000   0.570000
O   -2.772000   -4.382000   10.258000
H   -3.612000   -4.464000   10.803000
H   -1.993000   -4.334000   10.960000
O   -0.003000   -11.737000   5.894000
H   -0.598000   -12.026000   5.167000
H   -0.486000   -11.098000   6.578000
O   -7.091000   8.067000   7.866000
H   -6.574000   7.360000   8.396000
H   -7.253000   7.670000   6.967000
O   5.046000   -0.263000   -11.548000
H   5.037000   0.090000   -10.603000
H   4.135000   -0.167000   -11.875000
O   7.039000   -5.118000   -4.332000
H   7.801000   -5.049000   -4.993000
H   7.239000   -4.393000   -3.661000
O   -8.907000   3.394000   2.184000
H   -9.420000   3.306000   1.292000
H   -9.649000   2.963000   2.785000
O   3.671713   6.979505   -0.738438
H   3.788208   6.086406   -0.238982
H   4.427217   7.622896   -0.424457
O   13.157000   -4.360000   3.860000
H   12.233000   -3.934000   3.527000
H   13.344000   -4.098000   4.772000
O   8.158000   1.070000   5.183000
H   8.395000   1.995000   5.583000
H   8.994000   0.648000   4.755000
O   3.946696   4.562077   0.642273
H   3.059784   4.064322   0.574237
H   4.068298   4.786191   1.640745
O   -0.907000   5.501000   -8.887000
H   -1.152000   6.094000   -9.712000
H   -1.771000   5.167000   -8.428000
O   0.730000   -11.628000   -7.014000
H   0.275000   -11.019000   -7.698000
H   0.969000   -10.991000   -6.280000
O   -1.322000   5.702000   9.215000
H   -1.463000   6.619000   8.797000
H   -2.114000   5.094000   8.874000
O   -10.347000   -0.928000   -2.557000
H   -11.053000   -0.175000   -2.347000
H   -10.232000   -1.533000   -1.702000
O   -3.116000   -0.669000   8.666000
H   -3.866000   -0.648000   7.943000
H   -2.376000   0.030000   8.419000
O   -1.303233   0.775519   7.176354
H   -0.894864   -0.160811   6.975186
H   -0.530631   1.457957   7.161575
O   2.758000   12.449000   0.620000
H   1.804000   12.082000   0.531000
H   2.719000   13.442000   0.549000
O   1.626792   -5.464594   0.763407
H   2.116170   -5.429368   1.683780
H   2.041397   -4.765051   0.130425
O   1.719000   0.353000   -9.928000
H   1.633000   1.223000   -10.473000
H   2.558000   0.339000   -9.309000
O   -6.852000   4.839000   1.543000
H   -7.764000   4.427000   1.768000
H   -6.834000   5.050000   0.536000
O   5.456000   9.061000   4.971000
H   4.650000   9.731000   4.950000
H   5.964000   8.928000   4.107000
O   -2.184605   -7.732264   0.462995
H   -1.908336   -7.518926   -0.502415
H   -1.655392   -7.117174   1.098670
O   -2.093228   -4.877957   5.744920
H   -3.022564   -5.207267   5.440697
H   -2.224637   -4.233410   6.550544
O   -2.096000   -10.576000   -0.038000
H   -2.326000   -9.760000   0.508000
H   -1.057000   -10.543000   -0.030000
O   4.449000   13.429000   -2.654000
H   4.718000   12.553000   -2.209000
H   4.124000   13.301000   -3.627000
O   8.226000   -4.704000   3.942000
H   8.853000   -5.394000   3.509000
H   7.332000   -4.914000   3.490000
O   2.586394   -1.679118   6.248662
H   2.506647   -0.690748   6.550603
H   3.521965   -1.787335   5.824218
O   -3.928000   -9.164000   2.240000
H   -3.021000   -9.588000   2.587000
H   -3.748000   -8.465000   1.485000
O   1.487000   -6.178000   -10.432000
H   2.297000   -6.022000   -9.727000
H   0.881000   -5.331000   -10.389000
O   4.893000   8.244000   -3.154000
H   4.462000   7.989000   -2.237000
H   4.245000   8.765000   -3.692000
O   -1.452000   2.902000   11.246000
H   -0.627000   3.481000   10.945000
H   -2.173000   2.673000   10.499000
O   -4.734084   -2.827420   2.933338
H   -4.508663   -2.162909   2.177023
H   -4.226726   -3.695908   2.708794
O   -6.124000   2.724000   5.608000
H   -5.793000   3.549000   5.044000
H   -7.131000   2.804000   5.880000
O   9.876000   9.684000   -2.082000
H   10.070000   9.926000   -3.068000
H   10.735000   9.665000   -1.506000
O   -9.890000   2.752000   -3.168000
H   -10.300000   2.158000   -3.934000
H   -8.918000   2.929000   -3.235000
O   6.752000   11.950000   1.133000
H   7.552000   11.947000   0.499000
H   6.708000   12.977000   1.349000
O   0.099623   9.197986   1.905644
H   -0.023859   10.189923   1.645654
H   0.698079   8.804203   1.155140
O   6.948000   -6.404000   9.814000
H   7.837000   -6.757000   10.175000
H   6.537000   -6.010000   10.701000
O   -3.093000   12.601000   -8.195000
H   -2.293000   12.105000   -8.724000
H   -3.775000   11.901000   -7.763000
O   7.913000   -1.864000   3.438000
H   8.755000   -1.471000   3.828000
H   7.948000   -2.915000   3.666000
O   6.168000   8.354000   7.590000
H   5.798000   8.535000   6.644000
H   7.242000   8.457000   7.601000
O   2.996000   7.507000   -6.885000
H   2.430000   8.179000   -7.415000
H   3.143000   6.608000   -7.398000
O   8.247000   -9.031000   8.857000
H   7.763000   -8.850000   7.956000
H   7.974000   -9.838000   9.395000
O   -6.173000   -1.154000   9.289000
H   -7.055000   -0.636000   9.102000
H   -6.382000   -2.141000   9.546000
O   6.464000   -2.928000   8.124000
H   6.297000   -1.907000   7.936000
H   7.183000   -3.116000   7.476000
O   4.920000   -3.398000   -8.873000
H   5.670000   -2.808000   -8.553000
H   4.809000   -3.141000   -9.889000
O   5.239000   -8.078000   -8.496000
H   5.300000   -7.596000   -9.448000
H   6.204000   -8.056000   -8.208000
O   -2.746000   10.053000   5.832000
H   -3.114000   9.080000   5.768000
H   -1.843000   10.080000   5.422000
O   -4.824000   10.817000   -7.323000
H   -5.462000   10.698000   -6.513000
H   -4.343000   9.919000   -7.518000
O   -1.898000   -0.710000   13.094000
H   -1.832000   -1.688000   13.527000
H   -1.631000   0.181000   13.662000
O   4.649000   11.110000   -0.624000
H   3.727000   11.460000   -0.283000
H   5.184000   11.425000   0.178000
O   -2.329000   -9.109000   -5.981000
H   -3.101000   -8.916000   -5.320000
H   -1.530000   -8.550000   -5.621000
O   -9.633000   -6.892000   7.692000
H   -9.389000   -7.557000   6.964000
H   -10.655000   -6.817000   7.764000
O   2.408000   -11.669000   6.032000
H   1.394000   -11.685000   6.095000
H   2.771000   -12.629000   6.113000
O   3.342369   4.576782   3.443211
H   3.263905   3.550901   3.342949
H   2.387115   4.967685   3.554725
O   -1.612960   7.272472   0.828210
H   -1.006332   7.907155   1.371631
H   -1.874666   6.474386   1.412905
O   -7.870000   7.122000   -9.251000
H   -6.880000   7.126000   -9.007000
H   -8.257000   6.287000   -8.762000
O   -5.109000   8.262000   4.540000
H   -4.571000   8.384000   3.635000
H   -4.501000   7.839000   5.282000
O   7.666000   -1.693000   -5.603000
H   8.464000   -2.269000   -5.215000
H   6.959000   -1.832000   -4.891000
O   -9.796000   6.370000   -2.208000
H   -10.084000   7.266000   -1.994000
H   -10.446000   5.615000   -1.794000
O   10.701000   -4.950000   -3.035000
H   11.022000   -5.334000   -3.913000
H   11.551000   -4.785000   -2.471000
O   -6.306000   -6.431000   10.235000
H   -5.611000   -6.911000   9.673000
H   -7.245000   -6.885000   10.150000
O   8.409000   -6.684000   -1.618000
H   7.974000   -6.076000   -2.310000
H   9.435000   -6.669000   -1.703000
O   -5.407000   4.612000   3.738000
H   -4.487000   4.563000   3.316000
H   -6.011000   4.734000   2.909000
O   10.858000   -3.264000   3.071000
H   10.729000   -3.198000   2.056000
H   10.295000   -2.627000   3.602000
O   -4.332507   -1.191509   0.741335
H   -3.800756   -0.299046   0.687541
H   -5.311549   -0.917072   0.945571
O   -3.536000   -10.634000   8.308000
H   -3.604000   -11.632000   8.028000
H   -4.517000   -10.403000   8.153000
O   4.901000   -4.735000   5.393000
H   4.992000   -3.740000   5.600000
H   5.512000   -5.293000   5.971000
O   -3.462000   -10.465000   -10.414000
H   -2.801000   -10.319000   -9.686000
H   -4.467000   -10.134000   -10.193000
O   8.626000   3.518000   6.281000
H   8.249000   4.292000   5.693000
H   8.374000   3.808000   7.211000
O   12.417000   0.269000   2.856000
H   12.020000   -0.273000   2.018000
H   12.322000   1.249000   2.645000
O   7.236000   0.827000   -0.514000
H   8.278000   0.724000   -0.447000
H   6.918000   0.020000   0.078000
O   2.313000   -3.031000   -7.568000
H   3.219000   -3.391000   -7.786000
H   1.594000   -3.485000   -8.109000
O   2.816000   2.740000   -7.916000
H   2.892000   2.273000   -6.991000
H   3.774000   2.613000   -8.229000
O   -8.072000   -4.221000   7.054000
H   -7.309000   -4.144000   6.253000
H   -8.587000   -5.126000   6.778000
O   -3.457000   7.296000   6.470000
H   -3.218000   7.711000   7.368000
H   -4.018000   6.477000   6.750000
O   3.571000   -7.522000   7.086000
H   3.290000   -7.909000   6.194000
H   4.529000   -7.351000   7.062000
O   2.627000   15.637000   -2.685000
H   3.148000   14.776000   -2.463000
H   3.255000   16.201000   -3.302000
O   1.713000   -6.014000   8.605000
H   1.923000   -5.010000   8.546000
H   2.473000   -6.446000   8.017000
O   7.596000   -8.492000   6.227000
H   8.495000   -8.395000   5.749000
H   7.119000   -9.309000   5.817000
O   -6.540000   -3.208000   5.014000
H   -5.677000   -2.899000   4.498000
H   -7.328000   -2.824000   4.484000
O   -10.505000   0.663000   -5.016000
H   -10.522000   0.183000   -4.040000
H   -11.244000   0.286000   -5.565000
O   4.986000   -10.960000   7.072000
H   4.396000   -10.990000   6.246000
H   4.387000   -10.433000   7.769000
O   -1.929937   2.547491   2.873369
H   -0.926892   2.527551   3.111390
H   -2.408164   2.071599   3.665845
O   10.685000   3.734000   4.435000
H   10.175000   3.477000   5.286000
H   10.175000   3.288000   3.681000
O   -1.748000   -10.974000   -2.709000
H   -1.826000   -11.100000   -1.702000
H   -1.604000   -10.001000   -2.859000
O   6.207000   1.342000   -3.058000
H   6.930000   1.842000   -3.600000
H   6.535000   1.187000   -2.088000
O   -6.715000   -7.312000   3.833000
H   -6.412000   -7.119000   2.886000
H   -6.980000   -8.294000   4.011000
O   9.662000   -10.080000   -0.489000
H   9.729000   -10.760000   -1.245000
H   9.056000   -9.348000   -0.844000
O   -6.075000   -9.989000   -10.105000
H   -6.587000   -10.873000   -9.996000
H   -6.262000   -9.464000   -9.232000
O   6.277000   5.002000   -7.788000
H   5.978000   5.543000   -6.963000
H   6.100000   5.535000   -8.618000
O   4.825000   9.272000   -9.976000
H   4.210000   8.529000   -10.424000
H   4.368000   9.668000   -9.178000
O   -7.175000   3.957000   -3.583000
H   -6.169000   3.681000   -3.743000
H   -7.655000   4.345000   -4.461000
O   6.531000   9.359000   2.441000
H   6.487000   10.258000   1.945000
H   6.301000   8.614000   1.714000
O   -4.175000   0.353000   11.289000
H   -3.589000   -0.367000   11.737000
H   -4.462000   0.024000   10.367000
O   -0.757568   -5.983038   2.062061
H   -0.448955   -6.184534   3.026675
H   0.079508   -5.790622   1.487112
O   5.750000   1.146000   4.296000
H   6.737000   0.935000   4.639000
H   5.185000   1.586000   5.087000
O   4.068969   2.632718   -3.876737
H   3.908140   3.312315   -3.135624
H   4.916189   2.083001   -3.625120
O   2.986000   4.702000   10.517000
H   3.586000   5.370000   11.005000
H   2.781000   3.888000   11.103000
O   -0.619000   -4.282000   -9.863000
H   -1.647000   -4.226000   -9.691000
H   -0.189000   -4.458000   -8.987000
O   10.445000   -0.223000   -3.583000
H   10.176000   0.278000   -4.406000
H   10.077000   -1.153000   -3.484000
O   10.286000   -7.778000   5.433000
H   10.244000   -7.137000   4.625000
H   10.206000   -7.343000   6.356000
O   -3.276000   8.598000   -7.888000
H   -2.448000   8.760000   -7.261000
H   -2.993000   8.759000   -8.875000
O   5.233247   -1.848386   5.416623
H   5.824131   -1.319692   6.072191
H   5.592957   -1.647722   4.480993
O   -10.104000   2.543000   -0.390000
H   -9.966000   2.493000   -1.449000
H   -10.215000   1.631000   0.038000
O   3.502057   4.750656   -5.509371
H   2.858856   4.577758   -6.281018
H   3.736138   3.867410   -5.033249
O   -5.328000   -7.087000   -1.112000
H   -6.026000   -7.601000   -1.689000
H   -5.589000   -7.100000   -0.079000
O   0.655138   5.112573   3.805443
H   -0.202478   5.594941   4.092704
H   0.507706   4.095409   3.863765
O   -4.457000   8.328000   -11.413000
H   -5.391000   8.078000   -11.748000
H   -4.246000   7.663000   -10.636000
O   -13.204000   2.526000   -0.569000
H   -12.584000   3.342000   -0.504000
H   -14.173000   2.888000   -0.383000
O   -8.722000   7.450000   -4.547000
H   -9.401000   7.093000   -3.830000
H   -9.211000   8.284000   -4.967000
O   7.358000   4.942000   1.886000
H   7.405000   5.018000   2.925000
H   7.311000   3.918000   1.783000
O   11.075000   -1.911000   6.811000
H   10.893000   -1.821000   7.806000
H   12.040000   -2.302000   6.708000
O   -11.233000   -6.450000   -2.785000
H   -10.340000   -5.868000   -2.765000
H   -11.364000   -6.829000   -1.813000
O   -12.693000   0.552000   -2.470000
H   -12.700000   1.328000   -1.807000
H   -13.385000   0.721000   -3.198000
O   -4.515000   -6.853000   -12.376000
H   -5.216000   -6.564000   -11.603000
H   -4.014000   -6.017000   -12.659000
O   -7.444000   -9.324000   -1.322000
H   -7.993000   -8.876000   -0.565000
H   -7.941000   -8.992000   -2.238000
O   -3.308000   -4.330000   -9.826000
H   -3.749000   -3.959000   -10.661000
H   -3.401000   -5.372000   -9.817000
O   8.272000   -7.616000   0.894000
H   8.135000   -7.354000   -0.090000
H   7.707000   -8.419000   0.973000
O   -0.135000   0.602000   10.877000
H   -0.741000   1.403000   10.639000
H   -0.656000   -0.060000   11.471000
O   -0.332000   -0.089000   -8.085000
H   0.266000   -0.124000   -8.891000
H   -0.351000   0.881000   -7.787000
O   -0.613000   -7.369000   7.518000
H   0.318000   -7.163000   7.853000
H   -0.746000   -6.851000   6.658000
O   -10.156000   -2.548000   -0.312000
H   -10.680000   -3.271000   0.202000
H   -9.186000   -2.800000   -0.492000
O   7.027000   2.267000   1.821000
H   7.028000   1.697000   0.937000
H   6.303000   1.910000   2.477000
O   -3.548000   -4.340000   -12.852000
H   -3.966000   -3.585000   -13.445000
H   -2.582000   -4.108000   -12.636000
O   4.490000   12.284000   -7.777000
H   4.925000   11.337000   -7.645000
H   5.093000   13.135000   -7.700000
O   1.538000   9.047000   -8.724000
H   1.939000   8.554000   -9.546000
H   1.764000   10.040000   -8.785000
O   -7.269000   5.243000   -1.227000
H   -7.076000   4.590000   -2.034000
H   -7.910000   5.950000   -1.626000
O   5.365000   3.345000   9.203000
H   4.517000   3.861000   9.479000
H   6.211000   3.969000   9.135000
O   -5.997000   -2.883000   -4.481000
H   -5.679000   -2.399000   -5.328000
H   -6.905000   -2.425000   -4.228000
O   7.662000   -4.388000   0.434000
H   6.760000   -4.145000   0.842000
H   7.954000   -5.332000   0.413000
O   2.081000   -3.363000   8.257000
H   2.211000   -2.697000   7.459000
H   3.020000   -3.491000   8.727000
O   7.174000   8.564000   -5.574000
H   7.302000   9.109000   -4.728000
H   6.581000   7.750000   -5.568000
O   2.877000   7.599000   -10.608000
H   2.359000   7.885000   -11.438000
H   3.185000   6.663000   -10.866000
O   -3.940320   5.387884   -0.358991
H   -4.001259   5.662790   -1.358902
H   -4.614593   6.038950   0.079838
O   8.647000   4.828000   -6.746000
H   8.909000   5.767000   -6.410000
H   7.982000   4.801000   -7.490000
O   0.531000   -12.805000   -3.584000
H   0.444000   -13.856000   -3.756000
H   -0.314000   -12.486000   -3.041000
O   5.807000   -5.501000   3.079000
H   5.573000   -6.443000   2.738000
H   5.352000   -5.169000   3.897000
O   2.125000   2.705000   -11.939000
H   2.693000   2.826000   -12.773000
H   1.134000   3.044000   -12.039000
O   4.395000   -3.834000   9.742000
H   5.079000   -3.646000   8.923000
H   4.926000   -4.021000   10.637000
O   6.612000   2.705000   -9.224000
H   6.407000   3.439000   -8.560000
H   7.386000   3.021000   -9.865000
O   6.937000   -0.399000   7.237000
H   7.481000   0.135000   6.500000
H   6.849000   0.162000   8.057000
O   -4.408000   11.392000   -3.892000
H   -5.407000   11.355000   -4.240000
H   -4.480000   12.092000   -3.170000
O   -4.689940   2.900600   -3.605647
H   -4.272589   2.955242   -2.658201
H   -3.918610   2.603475   -4.228915
O   6.819000   -1.643000   -8.201000
H   6.964000   -1.662000   -7.151000
H   7.721000   -1.639000   -8.700000
O   -2.852000   -6.778000   8.928000
H   -1.894000   -7.011000   8.681000
H   -2.718000   -5.895000   9.416000
O   -3.553656   -5.385506   -2.097392
H   -4.225450   -6.086953   -1.717654
H   -3.906080   -4.474502   -1.760240
O   1.663000   2.248000   11.691000
H   1.481000   2.757000   12.555000
H   0.975000   1.507000   11.677000
O   3.026000   -9.245000   -6.066000
H   2.243000   -9.756000   -5.614000
H   3.718000   -8.837000   -5.385000
O   -5.837000   -9.878000   4.413000
H   -5.835000   -10.841000   4.814000
H   -5.035000   -9.701000   3.793000
O   -11.965000   4.369000   -3.624000
H   -12.145000   5.179000   -2.990000
H   -11.079000   4.035000   -3.329000
O   -6.556000   10.578000   4.709000
H   -5.885000   9.817000   4.902000
H   -7.234000   10.521000   5.482000
O   -0.393000   10.031000   4.637000
H   -0.240000   9.432000   3.804000
H   0.120000   10.946000   4.670000
O   -1.763000   3.807000   6.296000
H   -1.649000   4.518000   5.595000
H   -0.888000   3.384000   6.569000
O   -3.631000   -11.699000   -5.829000
H   -3.048000   -10.867000   -5.911000
H   -3.007000   -12.382000   -5.561000
O   -4.589000   0.140000   -9.403000
H   -3.840000   -0.447000   -9.085000
H   -5.276000   -0.512000   -9.901000
O   -8.758000   6.741000   2.375000
H   -8.229000   7.589000   2.127000
H   -8.121000   5.971000   2.463000
O   -2.095346   8.817288   -1.324003
H   -1.958671   8.189231   -0.506399
H   -1.206127   8.803201   -1.846339
O   5.632881   -1.469280   -3.204319
H   4.612702   -1.572166   -3.100121
H   5.840599   -0.460986   -3.248438
O   -8.044000   5.136000   6.417000
H   -7.961000   5.820000   5.611000
H   -8.881000   4.565000   6.255000
O   2.825000   0.150000   9.748000
H   2.655000   0.957000   10.382000
H   3.476000   -0.393000   10.281000
O   9.253000   0.640000   -6.040000
H   9.599000   0.795000   -6.986000
H   8.808000   -0.261000   -5.891000
O   6.048000   -6.408000   7.201000
H   6.300000   -6.242000   8.187000
H   6.781000   -6.974000   6.724000
O   -11.197000   5.785000   1.923000
H   -11.754000   6.688000   2.091000
H   -10.240000   6.079000   2.100000
O   4.547000   5.016000   5.845000
H   4.121000   4.886000   4.867000
H   4.102000   5.718000   6.457000
O   -3.221000   -12.593000   1.415000
H   -3.027000   -11.716000   0.837000
H   -2.925000   -12.240000   2.317000
O   -8.345000   4.925000   -5.835000
H   -9.036000   4.761000   -6.474000
H   -8.408000   5.927000   -5.644000
O   2.309000   9.096000   -4.619000
H   2.744000   8.708000   -5.446000
H   1.804000   9.958000   -4.843000
O   2.743600   -1.567897   -2.836395
H   2.017981   -1.005259   -2.395844
H   2.454019   -1.667164   -3.827087
O   12.093000   1.980000   -2.276000
H   13.002000   1.816000   -1.762000
H   11.822000   1.095000   -2.653000
O   0.498000   -1.992000   10.396000
H   0.489000   -0.997000   10.381000
H   0.853000   -2.370000   9.507000
O   10.722000   4.028000   -7.966000
H   9.998000   4.204000   -7.217000
H   11.621000   3.954000   -7.518000
O   -5.138000   -1.029000   6.813000
H   -5.762000   -1.398000   6.030000
H   -5.491000   -1.140000   7.756000
O   0.817000   -10.000000   0.227000
H   1.055000   -9.210000   0.810000
H   1.300000   -10.799000   0.710000
O   -0.002000   -8.748000   3.914000
H   1.029000   -8.988000   4.007000
H   -0.133000   -7.905000   4.480000
O   10.303000   -0.848000   4.459000
H   11.051000   -0.309000   4.018000
H   10.611000   -1.227000   5.367000
O   -10.619000   2.037000   3.847000
H   -10.993000   1.059000   3.994000
H   -11.474000   2.521000   3.642000
O   -6.833000   -0.675000   1.533000
H   -7.048000   0.152000   2.155000
H   -7.033000   -1.530000   2.020000
O   -7.440000   7.299000   5.099000
H   -6.474000   7.601000   4.639000
H   -8.056000   7.836000   4.528000
O   7.266000   5.347000   4.638000
H   6.369000   5.137000   5.118000
H   7.314000   6.370000   4.686000
O   1.589000   -6.165000   -13.162000
H   1.602000   -6.120000   -12.061000
H   0.693000   -5.921000   -13.490000
O   0.546000   -5.186000   -7.731000
H   -0.129000   -4.953000   -6.999000
H   1.188000   -5.892000   -7.320000
O   -1.020000   8.667000   -9.534000
H   -1.043000   8.339000   -10.521000
H   -0.081000   8.503000   -9.129000
O   0.764000   2.544000   6.919000
H   1.581000   1.909000   6.977000
H   0.912000   3.355000   7.560000
O   -1.071000   -9.999000   7.545000
H   -2.059000   -10.080000   7.884000
H   -0.897000   -9.041000   7.448000
O   0.823000   -10.240000   9.295000
H   0.430000   -9.822000   10.160000
H   0.059000   -10.125000   8.556000
O   -9.540000   -3.145000   -7.397000
H   -9.836000   -3.167000   -8.329000
H   -8.668000   -2.647000   -7.267000
O   -0.358000   -8.313000   -10.111000
H   -0.361000   -8.632000   -11.093000
H   0.464000   -7.704000   -9.951000
O   0.466000   11.108000   -5.567000
H   0.836000   12.080000   -5.774000
H   -0.326000   11.223000   -5.007000
O   8.729000   3.235000   -1.835000
H   7.912000   3.655000   -1.301000
H   8.597000   3.092000   -2.816000
O   -3.648000   8.701000   2.294000
H   -3.698000   8.160000   1.421000
H   -3.801000   9.655000   2.016000
O   -8.171000   -1.373000   -4.018000
H   -9.074000   -1.338000   -3.530000
H   -7.549000   -0.860000   -3.388000
O   7.218000   -3.523000   -2.148000
H   7.219000   -3.776000   -1.157000
H   6.547000   -2.782000   -2.388000
O   -9.039000   -2.219000   3.891000
H   -8.799000   -1.570000   4.661000
H   -9.947000   -2.653000   4.022000
O   2.585000   11.469000   -9.293000
H   3.251000   11.939000   -8.668000
H   2.509000   12.111000   -10.018000
O   -7.127000   11.105000   -4.254000
H   -7.913000   11.752000   -4.446000
H   -7.205000   10.405000   -3.464000
O   1.601000   -2.049000   12.962000
H   1.122000   -1.959000   12.141000
H   1.124000   -1.473000   13.707000
O   -0.545969   3.681758   -5.119296
H   -0.144812   4.623497   -5.284112
H   -0.438149   3.433121   -4.129932
O   -6.386000   -9.713000   8.662000
H   -5.812000   -8.926000   8.239000
H   -7.243000   -9.648000   8.093000
O   -11.522000   4.850000   -0.616000
H   -10.806000   4.135000   -0.518000
H   -11.735000   5.352000   0.222000
O   6.444000   -12.520000   1.368000
H   7.348000   -12.712000   0.946000
H   6.670000   -11.945000   2.188000
O   5.604000   8.720000   -0.283000
H   6.651000   8.723000   -0.371000
H   5.173000   9.663000   -0.386000
O   -1.282815   -6.939057   -2.197388
H   -2.021880   -6.217671   -2.138577
H   -1.016992   -7.004263   -3.197101
O   0.836000   -8.812000   -2.327000
H   0.927000   -9.284000   -1.437000
H   0.215000   -8.030000   -2.074000
O   -0.666000   -3.964000   11.784000
H   -0.126000   -3.261000   11.250000
H   -0.075000   -4.781000   11.896000
O   -6.029000   7.886000   -5.472000
H   -5.318000   8.163000   -4.828000
H   -6.980000   7.860000   -5.100000
O   -7.472000   0.523000   -6.249000
H   -7.174000   -0.407000   -6.525000
H   -8.496000   0.564000   -6.056000
O   -2.112000   8.125000   8.722000
H   -2.511000   8.161000   9.646000
H   -1.664000   9.016000   8.532000
O   -11.754000   -2.236000   -6.029000
H   -10.838000   -2.644000   -6.266000
H   -12.099000   -1.522000   -6.707000
O   -3.370324   -5.205073   2.382740
H   -3.613079   -5.438868   3.358830
H   -2.375146   -5.435357   2.215596
O   -2.959073   5.005323   2.193499
H   -2.511794   4.089300   2.384244
H   -3.308782   5.029712   1.221585
O   -4.423000   2.516000   -11.607000
H   -5.383000   2.669000   -11.371000
H   -4.119000   1.680000   -11.098000
O   4.950000   2.428000   6.728000
H   5.132000   2.558000   7.697000
H   4.841000   3.369000   6.406000
O   -2.742000   0.153000   -13.736000
H   -3.299000   1.026000   -13.686000
H   -1.858000   0.368000   -13.253000
O   -5.286000   11.841000   2.790000
H   -4.650000   12.483000   3.270000
H   -5.875000   11.444000   3.484000
O   -0.236000   -8.790000   11.325000
H   -1.082000   -8.210000   11.569000
H   0.473000   -8.138000   11.258000
O   -4.601000   -2.946000   12.126000
H   -4.446000   -2.592000   13.095000
H   -4.047000   -2.375000   11.499000
O   -8.213000   -0.046000   -9.675000
H   -8.087000   0.841000   -9.191000
H   -7.469000   -0.748000   -10.048000
O   -6.804000   -2.055000   -7.519000
H   -5.957000   -2.513000   -7.237000
H   -6.623000   -1.692000   -8.482000
O   4.796000   -1.348000   10.758000
H   4.556000   -2.159000   10.173000
H   5.475000   -0.695000   10.285000
O   3.842000   9.887000   9.180000
H   4.544000   9.155000   8.883000
H   2.936000   9.833000   8.619000
O   10.932000   4.409000   -0.724000
H   11.799000   3.904000   -0.487000
H   10.308000   3.637000   -1.084000
O   4.888000   -3.095000   -11.767000
H   4.367000   -3.596000   -12.462000
H   4.889000   -2.120000   -12.010000
O   -5.071000   -7.584000   7.587000
H   -4.174000   -7.083000   7.905000
H   -5.045000   -7.581000   6.559000
O   2.804550   -5.735682   3.089425
H   2.519110   -5.424698   4.029744
H   3.323599   -6.611461   3.155282
O   -3.435000   4.545000   -8.388000
H   -4.247000   4.947000   -7.952000
H   -3.494000   3.553000   -8.056000
O   9.163000   0.119000   9.819000
H   9.803000   0.931000   9.655000
H   8.195000   0.340000   9.618000
O   -7.204000   -0.583000   -1.340000
H   -6.745000   -0.008000   -1.999000
H   -7.360000   -0.313000   -0.367000
O   -0.451000   0.709000   -12.184000
H   -0.994000   0.965000   -11.372000
H   0.328000   0.012000   -11.862000
O   -4.523000   -5.675000   4.823000
H   -5.111000   -5.049000   5.356000
H   -5.150000   -6.393000   4.432000
O   9.762000   0.909000   -0.949000
H   9.348000   1.849000   -1.233000
H   10.022000   0.526000   -1.875000
O   -5.528000   5.916000   9.377000
H   -5.688000   5.233000   10.112000
H   -5.533000   5.438000   8.435000
O   8.350000   2.529000   -4.406000
H   8.888000   1.899000   -5.051000
H   8.410000   3.493000   -4.771000
O   2.836000   6.540000   7.262000
H   2.159000   5.943000   7.663000
H   2.498000   7.513000   7.285000
O   3.345000   -9.728000   8.540000
H   3.246000   -8.786000   8.105000
H   2.427000   -9.950000   9.046000
O   4.958000   -8.250000   -3.904000
H   5.115000   -9.121000   -3.311000
H   5.896000   -7.987000   -4.260000
O   5.030000   -7.944000   2.300000
H   4.409000   -8.069000   1.523000
H   5.082000   -8.826000   2.842000
O   2.355000   -5.202000   13.133000
H   2.239000   -4.198000   12.990000
H   3.296000   -5.284000   13.485000
O   -6.546000   -11.925000   -1.498000
H   -5.800000   -11.928000   -2.258000
H   -6.926000   -11.013000   -1.539000
O   2.210093   -4.931767   5.657853
H   3.246977   -4.923598   5.643051
H   1.902146   -4.511115   6.537810
O   -2.365000   -7.267000   11.865000
H   -3.192000   -7.347000   11.245000
H   -2.742000   -6.988000   12.766000
O   4.803000   -10.764000   3.644000
H   4.725000   -11.734000   3.949000
H   5.808000   -10.568000   3.734000
O   -2.046000   11.806000   -1.179000
H   -2.292000   10.833000   -1.060000
H   -2.746000   12.498000   -0.802000
O   -2.589244   1.948148   -4.964491
H   -1.996924   1.512234   -4.226676
H   -1.973446   2.706591   -5.307916
O   9.014000   11.519000   -0.116000
H   9.987000   11.691000   0.058000
H   8.869000   10.551000   -0.150000
O   -5.601000   -6.506000   1.510000
H   -4.570000   -6.190000   1.647000
H   -6.012000   -5.664000   1.151000
O   -2.972547   1.157020   4.953098
H   -2.368958   1.102766   5.787955
H   -3.937479   1.022824   5.245685
O   -2.769000   -7.004000   -10.190000
H   -3.185000   -7.189000   -11.155000
H   -1.858000   -7.370000   -10.107000
O   -0.829000   -13.115000   3.379000
H   -1.355000   -13.960000   3.691000
H   0.166000   -13.283000   3.280000
O   -8.035000   10.320000   -0.139000
H   -8.795000   10.960000   -0.115000
H   -8.099000   9.711000   -0.915000
O   -7.516000   -3.096000   -0.665000
H   -7.494000   -2.070000   -0.917000
H   -6.524000   -3.326000   -0.897000
O   4.137132   0.528659   0.892965
H   4.179628   0.787651   -0.087740
H   4.931465   -0.088934   1.118436
O   3.410000   -7.499000   -1.860000
H   4.041000   -7.832000   -2.586000
H   2.480000   -7.905000   -2.211000
O   -3.978181   -4.770386   -4.827023
H   -4.779838   -4.132326   -4.703783
H   -3.789933   -5.181780   -3.902483
O   1.411000   9.173000   6.775000
H   1.003000   9.427000   7.696000
H   0.705000   9.460000   6.074000
O   -9.069000   -8.483000   -3.299000
H   -9.422000   -9.193000   -4.000000
H   -9.738000   -7.715000   -3.041000
O   9.034000   -5.449000   -6.089000
H   8.976000   -5.338000   -7.136000
H   9.957000   -5.749000   -5.870000
O   1.158000   -2.482000   -14.049000
H   0.808000   -2.587000   -13.083000
H   2.125000   -2.878000   -14.227000
O   -4.326000   6.213000   -2.889000
H   -4.538000   7.172000   -3.078000
H   -4.025000   5.825000   -3.732000
O   -7.330000   1.297000   3.305000
H   -8.003000   1.947000   2.902000
H   -6.691000   1.842000   3.913000
O   -4.746841   -3.032155   -1.267531
H   -4.473988   -2.372138   -0.515666
H   -4.661954   -2.538918   -2.157858
O   2.066000   -6.779000   -6.325000
H   2.722000   -6.213000   -5.790000
H   2.406000   -7.766000   -6.338000
O   -0.503967   -6.949108   -4.889590
H   0.406675   -7.079044   -5.346612
H   -0.890979   -6.054886   -5.234016
O   9.438000   -2.682000   -3.315000
H   10.010000   -3.522000   -3.221000
H   8.766000   -2.841000   -2.542000
O   6.558000   0.826000   9.659000
H   6.768000   0.994000   10.654000
H   6.406000   1.782000   9.285000
O   7.856000   8.413000   -8.714000
H   7.864000   8.323000   -7.705000
H   6.919000   8.676000   -9.128000
O   -1.675000   11.882000   -3.944000
H   -2.603000   11.404000   -3.993000
H   -1.394000   11.901000   -2.994000
O   -3.856000   5.154000   -11.078000
H   -3.807000   5.137000   -10.040000
H   -3.808000   4.215000   -11.413000
O   9.794000   -6.376000   2.746000
H   10.715000   -6.320000   2.430000
H   9.244000   -6.945000   2.044000
O   -11.443000   -4.467000   1.089000
H   -12.439000   -4.380000   0.811000
H   -11.188000   -5.341000   1.565000
O   0.893000   13.590000   -6.161000
H   1.038000   14.126000   -7.023000
H   0.034000   13.936000   -5.787000
O   -8.725000   -1.148000   6.458000
H   -8.366000   -2.115000   6.595000
H   -9.740000   -1.102000   6.703000
O   -6.571000   -11.105000   -4.979000
H   -6.292000   -11.745000   -5.750000
H   -5.782000   -11.015000   -4.384000
O   5.159326   -3.507973   1.176416
H   5.078488   -4.238262   1.899078
H   4.340816   -3.540404   0.543672
O   2.772000   -9.282000   4.914000
H   3.686000   -9.421000   4.526000
H   2.546000   -10.182000   5.451000
O   -1.233000   14.489000   -4.661000
H   -1.606000   13.592000   -4.338000
H   -2.142000   14.867000   -4.947000
O   -3.765000   2.015000   -7.530000
H   -4.414000   1.362000   -8.023000
H   -3.665000   1.826000   -6.573000
O   -3.632715   -0.557164   -5.066217
H   -3.221827   0.386499   -5.085640
H   -4.459916   -0.532117   -4.465593
O   2.722000   0.826000   7.276000
H   2.628000   0.483000   8.247000
H   3.688000   1.129000   7.105000
O   3.314221   1.866818   3.165451
H   3.332659   1.486069   2.205609
H   4.191491   1.533562   3.590750
O   1.358632   8.414279   -0.384383
H   2.228642   7.872481   -0.515551
H   0.952279   8.632780   -1.301228
O   -1.448506   -4.536725   -5.843095
H   -1.326554   -3.513900   -5.946083
H   -2.421108   -4.670452   -5.507962
O   5.477000   -6.895000   -11.074000
H   6.032000   -5.999000   -10.970000
H   4.478000   -6.627000   -11.084000
O   3.384000   4.949000   -10.496000
H   3.012000   4.160000   -11.019000
H   2.609000   5.220000   -9.874000
O   9.766000   2.543000   2.378000
H   10.140000   2.323000   1.474000
H   8.776000   2.430000   2.201000
O   1.629000   5.316000   -8.084000
H   0.593000   5.431000   -8.289000
H   1.945000   4.330000   -8.239000
O   2.636000   12.856000   3.394000
H   2.046000   13.678000   3.528000
H   2.800000   12.669000   2.423000
O   -3.631000   12.708000   5.430000
H   -3.395000   11.687000   5.675000
H   -4.386000   13.069000   6.050000
O   7.859000   -9.230000   -2.538000
H   7.777000   -8.254000   -2.193000
H   6.989000   -9.809000   -2.451000
O   9.854000   5.764000   -3.087000
H   8.847000   5.803000   -3.130000
H   10.191000   5.630000   -2.087000
O   -5.857000   -6.403000   -9.898000
H   -6.792000   -6.738000   -9.690000
H   -5.290000   -6.584000   -9.056000
O   -9.107000   -4.969000   -2.961000
H   -8.141000   -5.269000   -2.989000
H   -9.261000   -4.408000   -3.755000
O   10.990000   -0.962000   0.752000
H   10.460000   -0.468000   0.095000
H   10.887000   -1.999000   0.613000
O   0.078000   2.574000   -7.750000
H   -0.236000   2.639000   -6.789000
H   1.126000   2.504000   -7.752000
O   -8.240000   -9.882000   2.489000
H   -7.300000   -10.300000   2.443000
H   -8.875000   -10.661000   2.255000
O   -1.465353   -1.839363   -6.295140
H   -1.070366   -1.197234   -7.009915
H   -2.250177   -1.373102   -5.806686
O   -7.947000   1.111000   9.266000
H   -7.016000   1.258000   9.564000
H   -8.048000   1.397000   8.273000
O   5.567000   6.505000   -5.659000
H   6.000000   6.291000   -4.813000
H   4.666000   5.994000   -5.536000
O   3.839000   -5.307000   -4.824000
H   3.872000   -5.157000   -3.850000
H   4.452000   -4.717000   -5.284000
O   -2.388000   -3.206000   7.795000
H   -2.723000   -3.569000   8.672000
H   -2.569000   -2.216000   8.012000
O   -1.026000   11.299000   -9.294000
H   -1.076000   10.255000   -9.364000
H   -0.018000   11.545000   -9.366000
O   -5.060000   1.991000   8.081000
H   -5.575000   2.289000   7.196000
H   -5.184000   1.001000   8.093000
O   -9.693000   -5.907000   -6.993000
H   -10.603000   -6.168000   -6.572000
H   -9.662000   -4.880000   -7.058000
O   4.660000   -5.215000   -2.181000
H   4.340000   -6.173000   -1.915000
H   5.474000   -5.296000   -2.774000
O   -2.196000   10.862000   8.449000
H   -2.122000   11.923000   8.584000
H   -2.540000   10.677000   7.485000
O   -1.752000   -10.493000   3.018000
H   -1.357000   -11.431000   3.214000
H   -0.981000   -9.830000   3.269000
O   -2.943000   3.420000   8.768000
H   -2.618000   3.218000   7.832000
H   -3.905000   2.958000   8.808000
O   -4.415000   -11.741000   -3.073000
H   -3.494000   -11.253000   -3.121000
H   -4.361000   -12.724000   -3.509000
O   9.410000   6.986000   -5.528000
H   8.447000   7.510000   -5.434000
H   9.795000   6.753000   -4.572000
O   -7.205000   2.805000   -11.048000
H   -7.235000   2.605000   -10.016000
H   -8.155000   3.138000   -11.206000
O   -4.581000   -6.626000   -7.616000
H   -3.729000   -7.077000   -7.291000
H   -4.656000   -5.818000   -6.976000
O   0.687591   6.096446   -5.528331
H   0.946130   5.968292   -6.516043
H   1.475778   6.582313   -5.099549
O   6.483000   4.697000   -0.901000
H   5.639000   4.395000   -0.366000
H   6.986000   5.378000   -0.284000
O   -3.712000   -2.622000   -7.930000
H   -3.675000   -3.467000   -8.487000
H   -2.875000   -2.599000   -7.339000
O   -4.370000   8.790000   -2.995000
H   -3.616000   8.370000   -2.424000
H   -4.162000   9.771000   -3.130000
O   -3.563000   -8.475000   -3.534000
H   -3.339000   -7.823000   -2.747000
H   -4.475000   -8.804000   -3.633000
O   1.098000   4.641000   8.388000
H   0.157000   4.967000   8.549000
H   1.641000   4.903000   9.232000
O   6.381952   -1.075910   1.273411
H   5.899437   -1.987143   1.160079
H   7.016873   -1.220857   2.080834
O   -0.479000   4.182000   -11.721000
H   -0.896000   5.103000   -11.649000
H   -0.928000   3.478000   -11.104000
O   6.455000   6.404000   10.029000
H   5.951000   6.874000   9.247000
H   5.781000   6.400000   10.807000
O   2.382000   -11.469000   1.717000
H   2.906000   -10.989000   2.456000
H   2.479000   -12.473000   1.892000
O   9.509000   6.148000   0.894000
H   10.200000   5.488000   0.534000
H   8.741000   5.651000   1.320000
O   3.670000   13.313000   -5.158000
H   2.649000   13.342000   -5.296000
H   3.984000   12.899000   -6.045000
O   -8.408000   1.842000   6.727000
H   -8.321000   0.923000   6.298000
H   -9.269000   2.239000   6.393000
O   -7.846000   -9.891000   6.421000
H   -8.559000   -9.316000   5.963000
H   -6.979000   -9.870000   5.777000
O   4.893000   0.415000   -8.733000
H   5.417000   1.276000   -8.778000
H   5.561000   -0.281000   -8.353000
O   3.697000   -10.228000   -8.336000
H   3.294000   -10.005000   -7.402000
H   4.256000   -9.371000   -8.385000
O   -8.504000   -4.920000   1.118000
H   -9.433000   -4.885000   0.801000
H   -8.009000   -4.337000   0.458000
O   -7.369000   -4.295000   -10.577000
H   -6.855000   -5.007000   -10.046000
H   -7.559000   -4.560000   -11.541000
O   -6.179000   -9.036000   -7.653000
H   -6.023000   -9.574000   -6.812000
H   -5.802000   -8.151000   -7.594000
O   -0.239351   -1.618683   6.721234
H   0.702246   -1.894773   6.430878
H   -0.809646   -2.423053   7.011607
O   -3.537000   14.249000   -0.274000
H   -4.178000   13.948000   -0.960000
H   -3.951000   15.078000   0.059000
O   0.161228   8.940667   -2.920482
H   -0.462829   9.407538   -3.577793
H   1.070901   8.847722   -3.404651
O   1.716986   -1.438254   -5.413475
H   2.032991   -2.009236   -6.222469
H   0.696172   -1.430863   -5.473582
O   -1.776000   2.211000   -9.910000
H   -2.502000   1.758000   -9.368000
H   -1.218000   2.655000   -9.155000
O   -8.848000   -8.009000   0.778000
H   -8.591000   -8.595000   1.593000
H   -8.834000   -7.104000   1.249000
O   -6.012000   -10.811000   1.184000
H   -5.224000   -10.284000   1.546000
H   -6.103000   -10.663000   0.206000
O   -4.161000   3.274000   12.218000
H   -3.143000   3.163000   12.059000
H   -4.586000   2.382000   12.171000
O   -1.243000   9.057000   -6.155000
H   -0.752000   8.307000   -5.797000
H   -0.572000   9.857000   -6.383000
O   9.710000   -6.735000   7.818000
H   9.583000   -5.721000   7.983000
H   9.365000   -7.390000   8.479000
O   3.159644   -3.564707   -0.739641
H   3.727859   -4.232894   -1.300529
H   2.870409   -2.838311   -1.406978
O   -0.044715   -6.161704   4.786073
H   0.820663   -5.706935   5.122510
H   -0.859153   -5.591577   5.111449
O   -8.467000   -7.194000   -8.846000
H   -8.272000   -8.156000   -8.521000
H   -8.934000   -6.736000   -7.984000
