42
-1.0148450292210809e+03 frame 63   xyz file generated by TeraChem
     C    -0.7496797018    3.7327975130   -1.9666232986
     H    -0.5972585959    4.0529572554   -3.0005032045
     H    -1.1205978071    4.5766156593   -1.3793506071
     H    -1.5047695300    2.9413610864   -1.9513801582
     C     1.6634654521    4.2851547911   -1.4014949196
     H     2.5710456698    3.8680162824   -0.9594784981
     H     1.8688996570    4.5824299435   -2.4328939282
     H     1.3562351088    5.1619964405   -0.8267806981
     C     0.5648525685    3.2455659026   -1.3701346833
     O     0.3797072362    2.8891392488   -0.0123174996
     O     1.0475493334    2.1320322876   -2.1319466705
     O    -0.7767605264    1.5937394600    1.3611492109
     O     0.6012313878    0.1541022246   -2.9484948915
     C    -0.2660837739    1.7171264575    0.2706482919
     C     0.4381472686    0.9630061747   -1.9141699007
     C    -0.2179017645    0.6788620298   -0.7536545013
     C    -0.7897343828   -0.6569184703   -0.3768456254
     H    -1.5974827034   -0.4644223692    0.3432433755
     C    -1.4215926145   -1.5017134579   -1.4705720369
     O    -1.7625574465   -1.1128299087   -2.5813670749
     C    -1.4221821717   -2.8983577673   -1.0079919480
     H    -1.9772225606   -3.6861488817   -1.5032429407
     C    -0.5257642540   -3.0147036957   -0.0213904458
     H    -0.2472352157   -3.9316794860    0.4909288672
     C     0.1557850127   -1.7105983359    0.3245207450
     H     1.1098303097   -1.6914573416   -0.2155502538
     N     0.4474183767   -1.6250837469    1.7323547361
     C     1.4824601009   -0.6748660607    2.1452377388
     H     1.1120884308    0.3603099945    2.1273738773
     H     1.7093629221   -0.9012378899    3.1931024402
     C     2.7791286454   -0.7872262416    1.3520505688
     H     3.5636725127   -0.2122501032    1.8543353638
     H     2.6908728003   -0.3856150465    0.3366300942
     H     3.1093051950   -1.8300348235    1.2910486889
     C    -0.7337117184   -1.5708608656    2.5935335409
     H    -1.0526875189   -0.5296738081    2.7581681428
     H    -1.5575052431   -2.0702664624    2.0669765036
     C    -0.5175208010   -2.2893448532    3.9228405458
     H    -0.1964832501   -3.3215442259    3.7490135424
     H     0.2425671708   -1.7971818540    4.5378700466
     H    -1.4468719913   -2.3041697303    4.5022448417
     H    -0.2029172656   -0.4094617882   -3.0154399685
42
-1.0148373138959812e+03 frame 218   xyz file generated by TeraChem
     C    -0.9205332381    4.0768598867   -2.4124406662
     H    -1.1768260757    4.3524802159   -3.4388023190
     H    -1.0683332336    4.9419652897   -1.7609908744
     H    -1.5959322560    3.2795557353   -2.0885926746
     C     1.5081103423    4.6951964815   -2.8014803325
     H     2.5264424146    4.3049499527   -2.7464503928
     H     1.2888322817    4.9788915642   -3.8338137254
     H     1.4227795826    5.5747693394   -2.1588709055
     C     0.5343383319    3.6300223825   -2.3436164834
     O     0.8892020510    3.3139921987   -1.0040249951
     O     0.7482303530    2.5117414762   -3.2044251589
     O     0.4287077803    2.0379217145    0.7401823220
     O     0.2321167243    0.4330166410   -3.6879358677
     C     0.4049661899    2.1638971255   -0.4639621143
     C     0.2868694467    1.2979478046   -2.8290499068
     C    -0.0407316053    1.1328824787   -1.4176546084
     C    -0.5954900900    0.0012389440   -0.8511070000
     H    -0.6782506230    0.0751211541    0.2294670618
     C    -1.1340586990   -1.1992725853   -1.3905518706
     O    -1.4496711965   -1.3561649695   -2.6986518285
     C    -1.4836732977   -2.2295461315   -0.5350387990
     H    -2.1033776084   -3.0053850723   -0.9837454468
     C    -1.1172864483   -2.3908827748    0.8286640524
     H    -1.7629014490   -3.0074589474    1.4476947488
     C     0.0528822926   -1.8800124845    1.3447090855
     H     0.7895084680   -1.5009437299    0.6435423533
     N     0.4188559397   -1.8104148526    2.6365795531
     C     1.7836865089   -1.4586785335    3.0365183739
     H     1.7013196198   -0.9798852142    4.0184327476
     H     2.3802879588   -2.3714777503    3.1798975087
     C     2.4981821563   -0.5061112534    2.0845516414
     H     3.4204153774   -0.1598565669    2.5604717005
     H     1.8793607646    0.3680866641    1.8572023030
     H     2.7863449143   -0.9867149969    1.1443387627
     C    -0.4918483526   -2.2491917607    3.6831864848
     H    -0.2716163692   -1.6634602984    4.5827327757
     H    -1.5073518862   -1.9812321071    3.3721407811
     C    -0.3924830311   -3.7432606874    3.9901721218
     H    -0.5877705337   -4.3437412907    3.0959526571
     H     0.6037532606   -4.0056205534    4.3608196844
     H    -1.1223909433   -4.0230574780    4.7567335056
     H    -0.8755706550   -0.7606074096   -3.2311316871
