42
-1.0148450292210809e+03 frame 63   xyz file generated by TeraChem
     C    -0.7496797018    3.7327975130   -1.9666232986
     H    -0.5972585959    4.0529572554   -3.0005032045
     H    -1.1205978071    4.5766156593   -1.3793506071
     H    -1.5047695300    2.9413610864   -1.9513801582
     C     1.6634654521    4.2851547911   -1.4014949196
     H     2.5710456698    3.8680162824   -0.9594784981
     H     1.8688996570    4.5824299435   -2.4328939282
     H     1.3562351088    5.1619964405   -0.8267806981
     C     0.5648525685    3.2455659026   -1.3701346833
     O     0.3797072362    2.8891392488   -0.0123174996
     O     1.0475493334    2.1320322876   -2.1319466705
     O    -0.7767605264    1.5937394600    1.3611492109
     O     0.6012313878    0.1541022246   -2.9484948915
     C    -0.2660837739    1.7171264575    0.2706482919
     C     0.4381472686    0.9630061747   -1.9141699007
     C    -0.2179017645    0.6788620298   -0.7536545013
     C    -0.7897343828   -0.6569184703   -0.3768456254
     H    -1.5974827034   -0.4644223692    0.3432433755
     C    -1.4215926145   -1.5017134579   -1.4705720369
     O    -1.7625574465   -1.1128299087   -2.5813670749
     C    -1.4221821717   -2.8983577673   -1.0079919480
     H    -1.9772225606   -3.6861488817   -1.5032429407
     C    -0.5257642540   -3.0147036957   -0.0213904458
     H    -0.2472352157   -3.9316794860    0.4909288672
     C     0.1557850127   -1.7105983359    0.3245207450
     H     1.1098303097   -1.6914573416   -0.2155502538
     N     0.4474183767   -1.6250837469    1.7323547361
     C     1.4824601009   -0.6748660607    2.1452377388
     H     1.1120884308    0.3603099945    2.1273738773
     H     1.7093629221   -0.9012378899    3.1931024402
     C     2.7791286454   -0.7872262416    1.3520505688
     H     3.5636725127   -0.2122501032    1.8543353638
     H     2.6908728003   -0.3856150465    0.3366300942
     H     3.1093051950   -1.8300348235    1.2910486889
     C    -0.7337117184   -1.5708608656    2.5935335409
     H    -1.0526875189   -0.5296738081    2.7581681428
     H    -1.5575052431   -2.0702664624    2.0669765036
     C    -0.5175208010   -2.2893448532    3.9228405458
     H    -0.1964832501   -3.3215442259    3.7490135424
     H     0.2425671708   -1.7971818540    4.5378700466
     H    -1.4468719913   -2.3041697303    4.5022448417
     H    -0.2029172656   -0.4094617882   -3.0154399685
