42
-1.0148373138959812e+03 frame 218   xyz file generated by TeraChem
     C    -0.9205332381    4.0768598867   -2.4124406662
     H    -1.1768260757    4.3524802159   -3.4388023190
     H    -1.0683332336    4.9419652897   -1.7609908744
     H    -1.5959322560    3.2795557353   -2.0885926746
     C     1.5081103423    4.6951964815   -2.8014803325
     H     2.5264424146    4.3049499527   -2.7464503928
     H     1.2888322817    4.9788915642   -3.8338137254
     H     1.4227795826    5.5747693394   -2.1588709055
     C     0.5343383319    3.6300223825   -2.3436164834
     O     0.8892020510    3.3139921987   -1.0040249951
     O     0.7482303530    2.5117414762   -3.2044251589
     O     0.4287077803    2.0379217145    0.7401823220
     O     0.2321167243    0.4330166410   -3.6879358677
     C     0.4049661899    2.1638971255   -0.4639621143
     C     0.2868694467    1.2979478046   -2.8290499068
     C    -0.0407316053    1.1328824787   -1.4176546084
     C    -0.5954900900    0.0012389440   -0.8511070000
     H    -0.6782506230    0.0751211541    0.2294670618
     C    -1.1340586990   -1.1992725853   -1.3905518706
     O    -1.4496711965   -1.3561649695   -2.6986518285
     C    -1.4836732977   -2.2295461315   -0.5350387990
     H    -2.1033776084   -3.0053850723   -0.9837454468
     C    -1.1172864483   -2.3908827748    0.8286640524
     H    -1.7629014490   -3.0074589474    1.4476947488
     C     0.0528822926   -1.8800124845    1.3447090855
     H     0.7895084680   -1.5009437299    0.6435423533
     N     0.4188559397   -1.8104148526    2.6365795531
     C     1.7836865089   -1.4586785335    3.0365183739
     H     1.7013196198   -0.9798852142    4.0184327476
     H     2.3802879588   -2.3714777503    3.1798975087
     C     2.4981821563   -0.5061112534    2.0845516414
     H     3.4204153774   -0.1598565669    2.5604717005
     H     1.8793607646    0.3680866641    1.8572023030
     H     2.7863449143   -0.9867149969    1.1443387627
     C    -0.4918483526   -2.2491917607    3.6831864848
     H    -0.2716163692   -1.6634602984    4.5827327757
     H    -1.5073518862   -1.9812321071    3.3721407811
     C    -0.3924830311   -3.7432606874    3.9901721218
     H    -0.5877705337   -4.3437412907    3.0959526571
     H     0.6037532606   -4.0056205534    4.3608196844
     H    -1.1223909433   -4.0230574780    4.7567335056
     H    -0.8755706550   -0.7606074096   -3.2311316871
