42
Converted from rst7
C   1.361924   4.522463   -2.222882
H   2.236455   4.922759   -1.707733
H   0.607865   5.310463   -2.289791
H   1.658706   4.219681   -3.229674
C   0.370210   3.713485   -0.047063
H   -0.060785   2.857923   0.480221
H   1.232549   4.086221   0.510539
H   -0.377113   4.509769   -0.092180
C   0.802534   3.343111   -1.460050
O   -0.302307   2.843040   -2.217319
O   1.819988   2.337064   -1.437606
O   -1.934062   1.377229   -2.293683
O   2.393965   0.298432   -0.842348
C   -0.770513   1.600963   -1.900759
C   1.454295   1.052296   -1.151242
C   0.082752   0.692635   -1.237675
C   -0.356430   -0.669438   -0.860451
H   0.569826   0.276599   1.159959
C   -1.390876   -1.446735   -1.285752
O   -2.333475   -1.235234   -2.202992
C   -1.397265   -2.736446   -0.570238
H   -2.107394   -3.525572   -0.781023
C   -0.405812   -2.759684   0.320842
H   -0.136627   -3.572580   0.977911
C   0.370182   -1.476355   0.199178
H   1.407436   -1.659747   -0.089116
N   0.447080   -0.682948   1.495762
C   1.679222   -0.947768   2.320582
H   2.498618   -0.494900   1.756768
H   1.548183   -0.385346   3.248899
C   1.991112   -2.408068   2.592730
H   2.905716   -2.449862   3.190142
H   2.183266   -2.951930   1.667363
H   1.208324   -2.921823   3.151082
C   -0.859105   -0.623553   2.264994
H   -0.852415   0.349639   2.756654
H   -1.634685   -0.614265   1.499152
C   -1.108362   -1.707146   3.296023
H   -1.161142   -2.707375   2.862992
H   -0.370934   -1.691185   4.101023
H   -2.079683   -1.492916   3.749815
H   -2.312565   -0.274954   -2.420526
