42
-1.0148291961626808e+03 frame 5408   xyz file generated by TeraChem
     C    -0.7795215483    3.9264504036   -1.8919070049
     H    -0.6507624791    4.3604672283   -2.8862276306
     H    -1.1203068008    4.6993320857   -1.1985920606
     H    -1.5437604376    3.1459586559   -1.9474916011
     C     1.6495184345    4.3821530013   -1.3038496634
     H     2.5630882481    3.8944366896   -0.9551585830
     H     1.8329004205    4.8329890077   -2.2815373052
     H     1.3665907688    5.1582610364   -0.5887070603
     C     0.5440210759    3.3530137159   -1.4018706386
     O     0.3892367415    2.8224208493   -0.0945363600
     O     1.0081293568    2.3631639864   -2.3166853578
     O    -0.7001938363    1.3580869554    1.1509849529
     O     0.5811168144    0.4409103612   -3.2985664366
     C    -0.2877277494    1.6484987191    0.0423215868
     C     0.4005455333    1.1510167286   -2.3169832060
     C    -0.3582549919    0.8005313308   -1.1409092515
     C    -0.9163670342   -0.4654881085   -0.9219610747
     H    -1.3700290512   -0.5393746091    0.0594145993
     C    -1.0665919384   -1.6237067348   -1.7194877207
     O    -1.0411936169   -1.6281517215   -3.0647621332
     C    -1.2926352437   -2.8336220438   -1.0352988666
     H    -1.7655418038   -3.6624468329   -1.5579927075
     C    -0.8533066769   -2.9475289124    0.2810633889
     H    -1.2664675411   -3.6820837946    0.9673854371
     C     0.1674561850   -2.0688229214    0.6987634874
     H     0.8914357337   -1.7781989278   -0.0545104513
     N     0.4048529056   -1.6131377178    1.9241863826
     C     1.5138599983   -0.6907973168    2.2067510045
     H     1.0928052206    0.3227691952    2.2288490963
     H     1.8737384271   -0.9251525989    3.2137304152
     C     2.6780007951   -0.7543806996    1.2306300061
     H     3.4701774859   -0.0936884198    1.5941732732
     H     2.4070044803   -0.4025018218    0.2304206812
     H     3.0879302346   -1.7667747966    1.1552542167
     C    -0.6517257376   -1.6082894756    2.9344319648
     H    -0.7917557434   -0.5662213741    3.2475880632
     H    -1.5802634111   -1.9181672498    2.4465213630
     C    -0.3434950331   -2.5051088765    4.1264409487
     H    -0.1869438508   -3.5398891535    3.8061461813
     H     0.5542662047   -2.1724727339    4.6575978895
     H    -1.1748166521   -2.4832387355    4.8372679079
     H    -0.5259141350   -0.8336505060   -3.3512398305
